********************************** N O D E S **********************************
*NODE, NSET=ALLNODES
       1,    0.000000e+00,   -8.000000e+01,   -2.500000e+02
       2,    0.000000e+00,   -8.000000e+01,   -1.200000e+02
       3,    0.000000e+00,   -8.000000e+01,   -2.175000e+02
       4,    0.000000e+00,   -8.000000e+01,   -1.850000e+02
       5,    0.000000e+00,   -8.000000e+01,   -1.525000e+02
       6,    1.200000e+02,   -8.000000e+01,    0.000000e+00
       7,    8.485281e+01,   -8.000000e+01,   -8.485281e+01
       8,    2.500000e+02,   -8.000000e+01,    0.000000e+00
       9,    2.175000e+02,   -8.000000e+01,    0.000000e+00
      10,    1.850000e+02,   -8.000000e+01,    0.000000e+00
      11,    1.525000e+02,   -8.000000e+01,    0.000000e+00
      12,    2.500000e+02,   -8.000000e+01,   -2.500000e+02
      13,    2.500000e+02,   -8.000000e+01,   -2.142857e+02
      14,    2.500000e+02,   -8.000000e+01,   -1.785714e+02
      15,    2.500000e+02,   -8.000000e+01,   -1.428571e+02
      16,    2.500000e+02,   -8.000000e+01,   -1.071429e+02
      17,    2.500000e+02,   -8.000000e+01,   -7.142857e+01
      18,    2.500000e+02,   -8.000000e+01,   -3.571429e+01
      19,    3.571429e+01,   -8.000000e+01,   -2.500000e+02
      20,    7.142857e+01,   -8.000000e+01,   -2.500000e+02
      21,    1.071429e+02,   -8.000000e+01,   -2.500000e+02
      22,    1.428571e+02,   -8.000000e+01,   -2.500000e+02
      23,    1.785714e+02,   -8.000000e+01,   -2.500000e+02
      24,    2.142857e+02,   -8.000000e+01,   -2.500000e+02
      25,    4.538103e+01,   -8.000000e+01,   -2.137852e+02
      26,    6.902303e+01,   -8.000000e+01,   -1.695474e+02
      27,    7.239803e+01,   -8.000000e+01,   -1.282148e+02
      28,    1.383771e+02,   -8.000000e+01,   -5.417171e+01
      29,    1.774758e+02,   -8.000000e+01,   -4.382370e+01
      30,    2.134872e+02,   -8.000000e+01,   -3.873703e+01
      31,    2.142322e+02,   -8.000000e+01,   -2.168002e+02
      32,    1.788374e+02,   -8.000000e+01,   -2.196510e+02
      33,    1.437522e+02,   -8.000000e+01,   -2.228285e+02
      34,    1.188007e+02,   -8.000000e+01,   -2.030760e+02
      35,    8.360391e+01,   -8.000000e+01,   -2.178716e+02
      36,    2.111318e+02,   -8.000000e+01,   -7.717347e+01
      37,    2.103167e+02,   -8.000000e+01,   -1.142292e+02
      38,    2.106282e+02,   -8.000000e+01,   -1.493860e+02
      39,    2.130447e+02,   -8.000000e+01,   -1.834662e+02
      40,    1.722379e+02,   -8.000000e+01,   -8.574087e+01
      41,    1.698759e+02,   -8.000000e+01,   -1.239318e+02
      42,    1.719410e+02,   -8.000000e+01,   -1.581940e+02
      43,    1.759869e+02,   -8.000000e+01,   -1.894699e+02
      44,    1.427763e+02,   -8.000000e+01,   -1.966467e+02
      45,    1.017887e+02,   -8.000000e+01,   -1.883513e+02
      46,    1.138549e+02,   -8.000000e+01,   -2.239570e+02
      47,    1.343552e+02,   -8.000000e+01,   -1.704209e+02
      48,    1.284572e+02,   -8.000000e+01,   -1.003688e+02
      49,    1.261811e+02,   -8.000000e+01,   -1.391208e+02
      50,    0.000000e+00,    0.000000e+00,   -1.200000e+02
      51,    0.000000e+00,   -1.600000e+01,   -1.200000e+02
      52,    0.000000e+00,   -3.200000e+01,   -1.200000e+02
      53,    0.000000e+00,   -4.800000e+01,   -1.200000e+02
      54,    0.000000e+00,   -6.400000e+01,   -1.200000e+02
      55,    0.000000e+00,    0.000000e+00,   -2.500000e+02
      56,    0.000000e+00,    0.000000e+00,   -2.175000e+02
      57,    0.000000e+00,    0.000000e+00,   -1.850000e+02
      58,    0.000000e+00,    0.000000e+00,   -1.525000e+02
      59,    0.000000e+00,   -6.400000e+01,   -2.500000e+02
      60,    0.000000e+00,   -4.800000e+01,   -2.500000e+02
      61,    0.000000e+00,   -3.200000e+01,   -2.500000e+02
      62,    0.000000e+00,   -1.600000e+01,   -2.500000e+02
      63,    0.000000e+00,   -6.400000e+01,   -2.175000e+02
      64,    0.000000e+00,   -6.400000e+01,   -1.850000e+02
      65,    0.000000e+00,   -6.400000e+01,   -1.525000e+02
      66,    0.000000e+00,   -4.800000e+01,   -2.175000e+02
      67,    0.000000e+00,   -4.800000e+01,   -1.850000e+02
      68,    0.000000e+00,   -4.800000e+01,   -1.525000e+02
      69,    0.000000e+00,   -3.200000e+01,   -2.175000e+02
      70,    0.000000e+00,   -3.200000e+01,   -1.850000e+02
      71,    0.000000e+00,   -3.200000e+01,   -1.525000e+02
      72,    0.000000e+00,   -1.600000e+01,   -2.175000e+02
      73,    0.000000e+00,   -1.600000e+01,   -1.850000e+02
      74,    0.000000e+00,   -1.600000e+01,   -1.525000e+02
      75,    1.200000e+02,    0.000000e+00,    0.000000e+00
      76,    1.200000e+02,   -1.600000e+01,   -9.797174e-16
      77,    1.200000e+02,   -3.200000e+01,   -1.959435e-15
      78,    1.200000e+02,   -4.800000e+01,   -2.939152e-15
      79,    1.200000e+02,   -6.400000e+01,   -3.918870e-15
      80,    8.485281e+01,    0.000000e+00,   -8.485281e+01
      81,    8.485281e+01,   -1.600000e+01,   -8.485281e+01
      82,    8.485281e+01,   -3.200000e+01,   -8.485281e+01
      83,    8.485281e+01,   -4.800000e+01,   -8.485281e+01
      84,    8.485281e+01,   -6.400000e+01,   -8.485281e+01
      85,    2.500000e+02,    0.000000e+00,    0.000000e+00
      86,    2.500000e+02,   -6.400000e+01,    0.000000e+00
      87,    2.500000e+02,   -4.800000e+01,    0.000000e+00
      88,    2.500000e+02,   -3.200000e+01,    0.000000e+00
      89,    2.500000e+02,   -1.600000e+01,    0.000000e+00
      90,    2.175000e+02,    0.000000e+00,    0.000000e+00
      91,    1.850000e+02,    0.000000e+00,    0.000000e+00
      92,    1.525000e+02,    0.000000e+00,    0.000000e+00
      93,    1.525000e+02,   -1.600000e+01,    0.000000e+00
      94,    1.525000e+02,   -3.200000e+01,    0.000000e+00
      95,    1.525000e+02,   -4.800000e+01,    0.000000e+00
      96,    1.525000e+02,   -6.400000e+01,    0.000000e+00
      97,    1.850000e+02,   -1.600000e+01,    0.000000e+00
      98,    1.850000e+02,   -3.200000e+01,    0.000000e+00
      99,    1.850000e+02,   -4.800000e+01,    0.000000e+00
     100,    1.850000e+02,   -6.400000e+01,    0.000000e+00
     101,    2.175000e+02,   -1.600000e+01,    0.000000e+00
     102,    2.175000e+02,   -3.200000e+01,    0.000000e+00
     103,    2.175000e+02,   -4.800000e+01,    0.000000e+00
     104,    2.175000e+02,   -6.400000e+01,    0.000000e+00
     105,    2.500000e+02,    0.000000e+00,   -2.500000e+02
     106,    2.500000e+02,   -1.600000e+01,   -2.500000e+02
     107,    2.500000e+02,   -3.200000e+01,   -2.500000e+02
     108,    2.500000e+02,   -4.800000e+01,   -2.500000e+02
     109,    2.500000e+02,   -6.400000e+01,   -2.500000e+02
     110,    2.500000e+02,    0.000000e+00,   -3.571429e+01
     111,    2.500000e+02,    0.000000e+00,   -7.142857e+01
     112,    2.500000e+02,    0.000000e+00,   -1.071429e+02
     113,    2.500000e+02,    0.000000e+00,   -1.428571e+02
     114,    2.500000e+02,    0.000000e+00,   -1.785714e+02
     115,    2.500000e+02,    0.000000e+00,   -2.142857e+02
     116,    2.500000e+02,   -1.600000e+01,   -3.571429e+01
     117,    2.500000e+02,   -3.200000e+01,   -3.571429e+01
     118,    2.500000e+02,   -4.800000e+01,   -3.571429e+01
     119,    2.500000e+02,   -6.400000e+01,   -3.571429e+01
     120,    2.500000e+02,   -1.600000e+01,   -7.142857e+01
     121,    2.500000e+02,   -3.200000e+01,   -7.142857e+01
     122,    2.500000e+02,   -4.800000e+01,   -7.142857e+01
     123,    2.500000e+02,   -6.400000e+01,   -7.142857e+01
     124,    2.500000e+02,   -1.600000e+01,   -1.071429e+02
     125,    2.500000e+02,   -3.200000e+01,   -1.071429e+02
     126,    2.500000e+02,   -4.800000e+01,   -1.071429e+02
     127,    2.500000e+02,   -6.400000e+01,   -1.071429e+02
     128,    2.500000e+02,   -1.600000e+01,   -1.428571e+02
     129,    2.500000e+02,   -3.200000e+01,   -1.428571e+02
     130,    2.500000e+02,   -4.800000e+01,   -1.428571e+02
     131,    2.500000e+02,   -6.400000e+01,   -1.428571e+02
     132,    2.500000e+02,   -1.600000e+01,   -1.785714e+02
     133,    2.500000e+02,   -3.200000e+01,   -1.785714e+02
     134,    2.500000e+02,   -4.800000e+01,   -1.785714e+02
     135,    2.500000e+02,   -6.400000e+01,   -1.785714e+02
     136,    2.500000e+02,   -1.600000e+01,   -2.142857e+02
     137,    2.500000e+02,   -3.200000e+01,   -2.142857e+02
     138,    2.500000e+02,   -4.800000e+01,   -2.142857e+02
     139,    2.500000e+02,   -6.400000e+01,   -2.142857e+02
     140,    3.571429e+01,    0.000000e+00,   -2.500000e+02
     141,    7.142857e+01,    0.000000e+00,   -2.500000e+02
     142,    1.071429e+02,    0.000000e+00,   -2.500000e+02
     143,    1.428571e+02,    0.000000e+00,   -2.500000e+02
     144,    1.785714e+02,    0.000000e+00,   -2.500000e+02
     145,    2.142857e+02,    0.000000e+00,   -2.500000e+02
     146,    3.571429e+01,   -6.400000e+01,   -2.500000e+02
     147,    3.571429e+01,   -4.800000e+01,   -2.500000e+02
     148,    3.571429e+01,   -3.200000e+01,   -2.500000e+02
     149,    3.571429e+01,   -1.600000e+01,   -2.500000e+02
     150,    7.142857e+01,   -6.400000e+01,   -2.500000e+02
     151,    7.142857e+01,   -4.800000e+01,   -2.500000e+02
     152,    7.142857e+01,   -3.200000e+01,   -2.500000e+02
     153,    7.142857e+01,   -1.600000e+01,   -2.500000e+02
     154,    1.071429e+02,   -6.400000e+01,   -2.500000e+02
     155,    1.071429e+02,   -4.800000e+01,   -2.500000e+02
     156,    1.071429e+02,   -3.200000e+01,   -2.500000e+02
     157,    1.071429e+02,   -1.600000e+01,   -2.500000e+02
     158,    1.428571e+02,   -6.400000e+01,   -2.500000e+02
     159,    1.428571e+02,   -4.800000e+01,   -2.500000e+02
     160,    1.428571e+02,   -3.200000e+01,   -2.500000e+02
     161,    1.428571e+02,   -1.600000e+01,   -2.500000e+02
     162,    1.785714e+02,   -6.400000e+01,   -2.500000e+02
     163,    1.785714e+02,   -4.800000e+01,   -2.500000e+02
     164,    1.785714e+02,   -3.200000e+01,   -2.500000e+02
     165,    1.785714e+02,   -1.600000e+01,   -2.500000e+02
     166,    2.142857e+02,   -6.400000e+01,   -2.500000e+02
     167,    2.142857e+02,   -4.800000e+01,   -2.500000e+02
     168,    2.142857e+02,   -3.200000e+01,   -2.500000e+02
     169,    2.142857e+02,   -1.600000e+01,   -2.500000e+02
     170,    4.538103e+01,   -6.400000e+01,   -2.137852e+02
     171,    6.902303e+01,   -6.400000e+01,   -1.695474e+02
     172,    7.239803e+01,   -6.400000e+01,   -1.282148e+02
     173,    1.383771e+02,   -6.400000e+01,   -5.417171e+01
     174,    1.774758e+02,   -6.400000e+01,   -4.382370e+01
     175,    2.134872e+02,   -6.400000e+01,   -3.873703e+01
     176,    2.142322e+02,   -6.400000e+01,   -2.168002e+02
     177,    1.788374e+02,   -6.400000e+01,   -2.196510e+02
     178,    1.437522e+02,   -6.400000e+01,   -2.228285e+02
     179,    1.138549e+02,   -6.400000e+01,   -2.239570e+02
     180,    8.360391e+01,   -6.400000e+01,   -2.178716e+02
     181,    2.111318e+02,   -6.400000e+01,   -7.717347e+01
     182,    2.103167e+02,   -6.400000e+01,   -1.142292e+02
     183,    2.106282e+02,   -6.400000e+01,   -1.493860e+02
     184,    2.130447e+02,   -6.400000e+01,   -1.834662e+02
     185,    1.017887e+02,   -6.400000e+01,   -1.883513e+02
     186,    1.722379e+02,   -6.400000e+01,   -8.574087e+01
     187,    1.698759e+02,   -6.400000e+01,   -1.239318e+02
     188,    1.719410e+02,   -6.400000e+01,   -1.581940e+02
     189,    1.759869e+02,   -6.400000e+01,   -1.894699e+02
     190,    1.427763e+02,   -6.400000e+01,   -1.966467e+02
     191,    1.343552e+02,   -6.400000e+01,   -1.704209e+02
     192,    1.188007e+02,   -6.400000e+01,   -2.030760e+02
     193,    1.284572e+02,   -6.400000e+01,   -1.003688e+02
     194,    1.261811e+02,   -6.400000e+01,   -1.391208e+02
     195,    4.538103e+01,   -4.800000e+01,   -2.137852e+02
     196,    6.902303e+01,   -4.800000e+01,   -1.695474e+02
     197,    7.239803e+01,   -4.800000e+01,   -1.282148e+02
     198,    1.383771e+02,   -4.800000e+01,   -5.417171e+01
     199,    1.774758e+02,   -4.800000e+01,   -4.382370e+01
     200,    2.134872e+02,   -4.800000e+01,   -3.873703e+01
     201,    2.142322e+02,   -4.800000e+01,   -2.168002e+02
     202,    1.788374e+02,   -4.800000e+01,   -2.196510e+02
     203,    1.437522e+02,   -4.800000e+01,   -2.228285e+02
     204,    1.138549e+02,   -4.800000e+01,   -2.239570e+02
     205,    8.360391e+01,   -4.800000e+01,   -2.178716e+02
     206,    2.111318e+02,   -4.800000e+01,   -7.717347e+01
     207,    2.103167e+02,   -4.800000e+01,   -1.142292e+02
     208,    2.106282e+02,   -4.800000e+01,   -1.493860e+02
     209,    2.130447e+02,   -4.800000e+01,   -1.834662e+02
     210,    1.017887e+02,   -4.800000e+01,   -1.883513e+02
     211,    1.722379e+02,   -4.800000e+01,   -8.574087e+01
     212,    1.698759e+02,   -4.800000e+01,   -1.239318e+02
     213,    1.719410e+02,   -4.800000e+01,   -1.581940e+02
     214,    1.759869e+02,   -4.800000e+01,   -1.894699e+02
     215,    1.427763e+02,   -4.800000e+01,   -1.966467e+02
     216,    1.343552e+02,   -4.800000e+01,   -1.704209e+02
     217,    1.188007e+02,   -4.800000e+01,   -2.030760e+02
     218,    1.284572e+02,   -4.800000e+01,   -1.003688e+02
     219,    1.261811e+02,   -4.800000e+01,   -1.391208e+02
     220,    4.538103e+01,   -3.200000e+01,   -2.137852e+02
     221,    6.902303e+01,   -3.200000e+01,   -1.695474e+02
     222,    7.239803e+01,   -3.200000e+01,   -1.282148e+02
     223,    1.383771e+02,   -3.200000e+01,   -5.417171e+01
     224,    1.774758e+02,   -3.200000e+01,   -4.382370e+01
     225,    2.134872e+02,   -3.200000e+01,   -3.873703e+01
     226,    2.142322e+02,   -3.200000e+01,   -2.168002e+02
     227,    1.788374e+02,   -3.200000e+01,   -2.196510e+02
     228,    1.437522e+02,   -3.200000e+01,   -2.228285e+02
     229,    1.138549e+02,   -3.200000e+01,   -2.239570e+02
     230,    8.360391e+01,   -3.200000e+01,   -2.178716e+02
     231,    2.111318e+02,   -3.200000e+01,   -7.717347e+01
     232,    2.103167e+02,   -3.200000e+01,   -1.142292e+02
     233,    2.106282e+02,   -3.200000e+01,   -1.493860e+02
     234,    2.130447e+02,   -3.200000e+01,   -1.834662e+02
     235,    1.017887e+02,   -3.200000e+01,   -1.883513e+02
     236,    1.722379e+02,   -3.200000e+01,   -8.574087e+01
     237,    1.698759e+02,   -3.200000e+01,   -1.239318e+02
     238,    1.719410e+02,   -3.200000e+01,   -1.581940e+02
     239,    1.759869e+02,   -3.200000e+01,   -1.894699e+02
     240,    1.427763e+02,   -3.200000e+01,   -1.966467e+02
     241,    1.343552e+02,   -3.200000e+01,   -1.704209e+02
     242,    1.188007e+02,   -3.200000e+01,   -2.030760e+02
     243,    1.284572e+02,   -3.200000e+01,   -1.003688e+02
     244,    1.261811e+02,   -3.200000e+01,   -1.391208e+02
     245,    4.538103e+01,   -1.600000e+01,   -2.137852e+02
     246,    6.902303e+01,   -1.600000e+01,   -1.695474e+02
     247,    7.239803e+01,   -1.600000e+01,   -1.282148e+02
     248,    1.383771e+02,   -1.600000e+01,   -5.417171e+01
     249,    1.774758e+02,   -1.600000e+01,   -4.382370e+01
     250,    2.134872e+02,   -1.600000e+01,   -3.873703e+01
     251,    2.142322e+02,   -1.600000e+01,   -2.168002e+02
     252,    1.788374e+02,   -1.600000e+01,   -2.196510e+02
     253,    1.437522e+02,   -1.600000e+01,   -2.228285e+02
     254,    1.138549e+02,   -1.600000e+01,   -2.239570e+02
     255,    8.360391e+01,   -1.600000e+01,   -2.178716e+02
     256,    2.111318e+02,   -1.600000e+01,   -7.717347e+01
     257,    2.103167e+02,   -1.600000e+01,   -1.142292e+02
     258,    2.106282e+02,   -1.600000e+01,   -1.493860e+02
     259,    2.130447e+02,   -1.600000e+01,   -1.834662e+02
     260,    1.017887e+02,   -1.600000e+01,   -1.883513e+02
     261,    1.722379e+02,   -1.600000e+01,   -8.574087e+01
     262,    1.698759e+02,   -1.600000e+01,   -1.239318e+02
     263,    1.719410e+02,   -1.600000e+01,   -1.581940e+02
     264,    1.759869e+02,   -1.600000e+01,   -1.894699e+02
     265,    1.427763e+02,   -1.600000e+01,   -1.966467e+02
     266,    1.343552e+02,   -1.600000e+01,   -1.704209e+02
     267,    1.188007e+02,   -1.600000e+01,   -2.030760e+02
     268,    1.284572e+02,   -1.600000e+01,   -1.003688e+02
     269,    1.261811e+02,   -1.600000e+01,   -1.391208e+02
     270,    4.538103e+01,    0.000000e+00,   -2.137852e+02
     271,    6.902303e+01,    0.000000e+00,   -1.695474e+02
     272,    7.239803e+01,    0.000000e+00,   -1.282148e+02
     273,    1.383771e+02,    0.000000e+00,   -5.417171e+01
     274,    1.774758e+02,    0.000000e+00,   -4.382370e+01
     275,    2.134872e+02,    0.000000e+00,   -3.873703e+01
     276,    2.142322e+02,    0.000000e+00,   -2.168002e+02
     277,    1.788374e+02,    0.000000e+00,   -2.196510e+02
     278,    1.437522e+02,    0.000000e+00,   -2.228285e+02
     279,    1.138549e+02,    0.000000e+00,   -2.239570e+02
     280,    8.360391e+01,    0.000000e+00,   -2.178716e+02
     281,    2.111318e+02,    0.000000e+00,   -7.717347e+01
     282,    2.103167e+02,    0.000000e+00,   -1.142292e+02
     283,    2.106282e+02,    0.000000e+00,   -1.493860e+02
     284,    2.130447e+02,    0.000000e+00,   -1.834662e+02
     285,    1.017887e+02,    0.000000e+00,   -1.883513e+02
     286,    1.722379e+02,    0.000000e+00,   -8.574087e+01
     287,    1.698759e+02,    0.000000e+00,   -1.239318e+02
     288,    1.719410e+02,    0.000000e+00,   -1.581940e+02
     289,    1.759869e+02,    0.000000e+00,   -1.894699e+02
     290,    1.427763e+02,    0.000000e+00,   -1.966467e+02
     291,    1.343552e+02,    0.000000e+00,   -1.704209e+02
     292,    1.188007e+02,    0.000000e+00,   -2.030760e+02
     293,    1.284572e+02,    0.000000e+00,   -1.003688e+02
     294,    1.261811e+02,    0.000000e+00,   -1.391208e+02
     295,    0.000000e+00,   -2.400000e+02,   -1.200000e+02
     296,    0.000000e+00,   -2.400000e+02,   -2.500000e+02
     297,    0.000000e+00,   -2.400000e+02,   -1.525000e+02
     298,    0.000000e+00,   -2.400000e+02,   -1.850000e+02
     299,    0.000000e+00,   -2.400000e+02,   -2.175000e+02
     300,    0.000000e+00,   -9.454545e+01,   -1.200000e+02
     301,    0.000000e+00,   -1.090909e+02,   -1.200000e+02
     302,    0.000000e+00,   -1.236364e+02,   -1.200000e+02
     303,    0.000000e+00,   -1.381818e+02,   -1.200000e+02
     304,    0.000000e+00,   -1.527273e+02,   -1.200000e+02
     305,    0.000000e+00,   -1.672727e+02,   -1.200000e+02
     306,    0.000000e+00,   -1.818182e+02,   -1.200000e+02
     307,    0.000000e+00,   -1.963636e+02,   -1.200000e+02
     308,    0.000000e+00,   -2.109091e+02,   -1.200000e+02
     309,    0.000000e+00,   -2.254545e+02,   -1.200000e+02
     310,    0.000000e+00,   -2.254545e+02,   -2.500000e+02
     311,    0.000000e+00,   -2.109091e+02,   -2.500000e+02
     312,    0.000000e+00,   -1.963636e+02,   -2.500000e+02
     313,    0.000000e+00,   -1.818182e+02,   -2.500000e+02
     314,    0.000000e+00,   -1.672727e+02,   -2.500000e+02
     315,    0.000000e+00,   -1.527273e+02,   -2.500000e+02
     316,    0.000000e+00,   -1.381818e+02,   -2.500000e+02
     317,    0.000000e+00,   -1.236364e+02,   -2.500000e+02
     318,    0.000000e+00,   -1.090909e+02,   -2.500000e+02
     319,    0.000000e+00,   -9.454545e+01,   -2.500000e+02
     320,    0.000000e+00,   -2.254545e+02,   -2.175000e+02
     321,    0.000000e+00,   -2.254545e+02,   -1.850000e+02
     322,    0.000000e+00,   -2.254545e+02,   -1.525000e+02
     323,    0.000000e+00,   -2.109091e+02,   -2.175000e+02
     324,    0.000000e+00,   -2.109091e+02,   -1.850000e+02
     325,    0.000000e+00,   -2.109091e+02,   -1.525000e+02
     326,    0.000000e+00,   -1.963636e+02,   -2.175000e+02
     327,    0.000000e+00,   -1.963636e+02,   -1.850000e+02
     328,    0.000000e+00,   -1.963636e+02,   -1.525000e+02
     329,    0.000000e+00,   -1.818182e+02,   -2.175000e+02
     330,    0.000000e+00,   -1.818182e+02,   -1.850000e+02
     331,    0.000000e+00,   -1.818182e+02,   -1.525000e+02
     332,    0.000000e+00,   -1.672727e+02,   -2.175000e+02
     333,    0.000000e+00,   -1.672727e+02,   -1.850000e+02
     334,    0.000000e+00,   -1.672727e+02,   -1.525000e+02
     335,    0.000000e+00,   -1.527273e+02,   -2.175000e+02
     336,    0.000000e+00,   -1.527273e+02,   -1.850000e+02
     337,    0.000000e+00,   -1.527273e+02,   -1.525000e+02
     338,    0.000000e+00,   -1.381818e+02,   -2.175000e+02
     339,    0.000000e+00,   -1.381818e+02,   -1.850000e+02
     340,    0.000000e+00,   -1.381818e+02,   -1.525000e+02
     341,    0.000000e+00,   -1.236364e+02,   -2.175000e+02
     342,    0.000000e+00,   -1.236364e+02,   -1.850000e+02
     343,    0.000000e+00,   -1.236364e+02,   -1.525000e+02
     344,    0.000000e+00,   -1.090909e+02,   -2.175000e+02
     345,    0.000000e+00,   -1.090909e+02,   -1.850000e+02
     346,    0.000000e+00,   -1.090909e+02,   -1.525000e+02
     347,    0.000000e+00,   -9.454545e+01,   -2.175000e+02
     348,    0.000000e+00,   -9.454545e+01,   -1.850000e+02
     349,    0.000000e+00,   -9.454545e+01,   -1.525000e+02
     350,    1.200000e+02,   -2.400000e+02,    0.000000e+00
     351,    8.485281e+01,   -2.400000e+02,   -8.485281e+01
     352,    1.200000e+02,   -9.454545e+01,    4.007935e-15
     353,    1.200000e+02,   -1.090909e+02,    3.117283e-15
     354,    1.200000e+02,   -1.236364e+02,    2.226631e-15
     355,    1.200000e+02,   -1.381818e+02,    1.335978e-15
     356,    1.200000e+02,   -1.527273e+02,    4.453261e-16
     357,    1.200000e+02,   -1.672727e+02,   -4.453261e-16
     358,    1.200000e+02,   -1.818182e+02,   -1.335978e-15
     359,    1.200000e+02,   -1.963636e+02,   -2.226631e-15
     360,    1.200000e+02,   -2.109091e+02,   -3.117283e-15
     361,    1.200000e+02,   -2.254545e+02,   -4.007935e-15
     362,    8.485281e+01,   -9.454545e+01,   -8.485281e+01
     363,    8.485281e+01,   -1.090909e+02,   -8.485281e+01
     364,    8.485281e+01,   -1.236364e+02,   -8.485281e+01
     365,    8.485281e+01,   -1.381818e+02,   -8.485281e+01
     366,    8.485281e+01,   -1.527273e+02,   -8.485281e+01
     367,    8.485281e+01,   -1.672727e+02,   -8.485281e+01
     368,    8.485281e+01,   -1.818182e+02,   -8.485281e+01
     369,    8.485281e+01,   -1.963636e+02,   -8.485281e+01
     370,    8.485281e+01,   -2.109091e+02,   -8.485281e+01
     371,    8.485281e+01,   -2.254545e+02,   -8.485281e+01
     372,    2.500000e+02,   -2.400000e+02,    0.000000e+00
     373,    1.525000e+02,   -2.400000e+02,    0.000000e+00
     374,    1.850000e+02,   -2.400000e+02,    0.000000e+00
     375,    2.175000e+02,   -2.400000e+02,    0.000000e+00
     376,    2.500000e+02,   -2.254545e+02,    0.000000e+00
     377,    2.500000e+02,   -2.109091e+02,    0.000000e+00
     378,    2.500000e+02,   -1.963636e+02,    0.000000e+00
     379,    2.500000e+02,   -1.818182e+02,    0.000000e+00
     380,    2.500000e+02,   -1.672727e+02,    0.000000e+00
     381,    2.500000e+02,   -1.527273e+02,    0.000000e+00
     382,    2.500000e+02,   -1.381818e+02,    0.000000e+00
     383,    2.500000e+02,   -1.236364e+02,    0.000000e+00
     384,    2.500000e+02,   -1.090909e+02,    0.000000e+00
     385,    2.500000e+02,   -9.454545e+01,    0.000000e+00
     386,    1.525000e+02,   -9.454545e+01,    0.000000e+00
     387,    1.525000e+02,   -1.090909e+02,    0.000000e+00
     388,    1.525000e+02,   -1.236364e+02,    0.000000e+00
     389,    1.525000e+02,   -1.381818e+02,    0.000000e+00
     390,    1.525000e+02,   -1.527273e+02,    0.000000e+00
     391,    1.525000e+02,   -1.672727e+02,    0.000000e+00
     392,    1.525000e+02,   -1.818182e+02,    0.000000e+00
     393,    1.525000e+02,   -1.963636e+02,    0.000000e+00
     394,    1.525000e+02,   -2.109091e+02,    0.000000e+00
     395,    1.525000e+02,   -2.254545e+02,    0.000000e+00
     396,    1.850000e+02,   -9.454545e+01,    0.000000e+00
     397,    1.850000e+02,   -1.090909e+02,    0.000000e+00
     398,    1.850000e+02,   -1.236364e+02,    0.000000e+00
     399,    1.850000e+02,   -1.381818e+02,    0.000000e+00
     400,    1.850000e+02,   -1.527273e+02,    0.000000e+00
     401,    1.850000e+02,   -1.672727e+02,    0.000000e+00
     402,    1.850000e+02,   -1.818182e+02,    0.000000e+00
     403,    1.850000e+02,   -1.963636e+02,    0.000000e+00
     404,    1.850000e+02,   -2.109091e+02,    0.000000e+00
     405,    1.850000e+02,   -2.254545e+02,    0.000000e+00
     406,    2.175000e+02,   -9.454545e+01,    0.000000e+00
     407,    2.175000e+02,   -1.090909e+02,    0.000000e+00
     408,    2.175000e+02,   -1.236364e+02,    0.000000e+00
     409,    2.175000e+02,   -1.381818e+02,    0.000000e+00
     410,    2.175000e+02,   -1.527273e+02,    0.000000e+00
     411,    2.175000e+02,   -1.672727e+02,    0.000000e+00
     412,    2.175000e+02,   -1.818182e+02,    0.000000e+00
     413,    2.175000e+02,   -1.963636e+02,    0.000000e+00
     414,    2.175000e+02,   -2.109091e+02,    0.000000e+00
     415,    2.175000e+02,   -2.254545e+02,    0.000000e+00
     416,    2.500000e+02,   -2.400000e+02,   -2.500000e+02
     417,    2.500000e+02,   -9.454545e+01,   -2.500000e+02
     418,    2.500000e+02,   -1.090909e+02,   -2.500000e+02
     419,    2.500000e+02,   -1.236364e+02,   -2.500000e+02
     420,    2.500000e+02,   -1.381818e+02,   -2.500000e+02
     421,    2.500000e+02,   -1.527273e+02,   -2.500000e+02
     422,    2.500000e+02,   -1.672727e+02,   -2.500000e+02
     423,    2.500000e+02,   -1.818182e+02,   -2.500000e+02
     424,    2.500000e+02,   -1.963636e+02,   -2.500000e+02
     425,    2.500000e+02,   -2.109091e+02,   -2.500000e+02
     426,    2.500000e+02,   -2.254545e+02,   -2.500000e+02
     427,    2.142857e+02,   -2.400000e+02,   -2.500000e+02
     428,    1.785714e+02,   -2.400000e+02,   -2.500000e+02
     429,    1.428571e+02,   -2.400000e+02,   -2.500000e+02
     430,    1.071429e+02,   -2.400000e+02,   -2.500000e+02
     431,    7.142857e+01,   -2.400000e+02,   -2.500000e+02
     432,    3.571429e+01,   -2.400000e+02,   -2.500000e+02
     433,    3.571429e+01,   -2.254545e+02,   -2.500000e+02
     434,    3.571429e+01,   -2.109091e+02,   -2.500000e+02
     435,    3.571429e+01,   -1.963636e+02,   -2.500000e+02
     436,    3.571429e+01,   -1.818182e+02,   -2.500000e+02
     437,    3.571429e+01,   -1.672727e+02,   -2.500000e+02
     438,    3.571429e+01,   -1.527273e+02,   -2.500000e+02
     439,    3.571429e+01,   -1.381818e+02,   -2.500000e+02
     440,    3.571429e+01,   -1.236364e+02,   -2.500000e+02
     441,    3.571429e+01,   -1.090909e+02,   -2.500000e+02
     442,    3.571429e+01,   -9.454545e+01,   -2.500000e+02
     443,    7.142857e+01,   -2.254545e+02,   -2.500000e+02
     444,    7.142857e+01,   -2.109091e+02,   -2.500000e+02
     445,    7.142857e+01,   -1.963636e+02,   -2.500000e+02
     446,    7.142857e+01,   -1.818182e+02,   -2.500000e+02
     447,    7.142857e+01,   -1.672727e+02,   -2.500000e+02
     448,    7.142857e+01,   -1.527273e+02,   -2.500000e+02
     449,    7.142857e+01,   -1.381818e+02,   -2.500000e+02
     450,    7.142857e+01,   -1.236364e+02,   -2.500000e+02
     451,    7.142857e+01,   -1.090909e+02,   -2.500000e+02
     452,    7.142857e+01,   -9.454545e+01,   -2.500000e+02
     453,    1.071429e+02,   -2.254545e+02,   -2.500000e+02
     454,    1.071429e+02,   -2.109091e+02,   -2.500000e+02
     455,    1.071429e+02,   -1.963636e+02,   -2.500000e+02
     456,    1.071429e+02,   -1.818182e+02,   -2.500000e+02
     457,    1.071429e+02,   -1.672727e+02,   -2.500000e+02
     458,    1.071429e+02,   -1.527273e+02,   -2.500000e+02
     459,    1.071429e+02,   -1.381818e+02,   -2.500000e+02
     460,    1.071429e+02,   -1.236364e+02,   -2.500000e+02
     461,    1.071429e+02,   -1.090909e+02,   -2.500000e+02
     462,    1.071429e+02,   -9.454545e+01,   -2.500000e+02
     463,    1.428571e+02,   -2.254545e+02,   -2.500000e+02
     464,    1.428571e+02,   -2.109091e+02,   -2.500000e+02
     465,    1.428571e+02,   -1.963636e+02,   -2.500000e+02
     466,    1.428571e+02,   -1.818182e+02,   -2.500000e+02
     467,    1.428571e+02,   -1.672727e+02,   -2.500000e+02
     468,    1.428571e+02,   -1.527273e+02,   -2.500000e+02
     469,    1.428571e+02,   -1.381818e+02,   -2.500000e+02
     470,    1.428571e+02,   -1.236364e+02,   -2.500000e+02
     471,    1.428571e+02,   -1.090909e+02,   -2.500000e+02
     472,    1.428571e+02,   -9.454545e+01,   -2.500000e+02
     473,    1.785714e+02,   -2.254545e+02,   -2.500000e+02
     474,    1.785714e+02,   -2.109091e+02,   -2.500000e+02
     475,    1.785714e+02,   -1.963636e+02,   -2.500000e+02
     476,    1.785714e+02,   -1.818182e+02,   -2.500000e+02
     477,    1.785714e+02,   -1.672727e+02,   -2.500000e+02
     478,    1.785714e+02,   -1.527273e+02,   -2.500000e+02
     479,    1.785714e+02,   -1.381818e+02,   -2.500000e+02
     480,    1.785714e+02,   -1.236364e+02,   -2.500000e+02
     481,    1.785714e+02,   -1.090909e+02,   -2.500000e+02
     482,    1.785714e+02,   -9.454545e+01,   -2.500000e+02
     483,    2.142857e+02,   -2.254545e+02,   -2.500000e+02
     484,    2.142857e+02,   -2.109091e+02,   -2.500000e+02
     485,    2.142857e+02,   -1.963636e+02,   -2.500000e+02
     486,    2.142857e+02,   -1.818182e+02,   -2.500000e+02
     487,    2.142857e+02,   -1.672727e+02,   -2.500000e+02
     488,    2.142857e+02,   -1.527273e+02,   -2.500000e+02
     489,    2.142857e+02,   -1.381818e+02,   -2.500000e+02
     490,    2.142857e+02,   -1.236364e+02,   -2.500000e+02
     491,    2.142857e+02,   -1.090909e+02,   -2.500000e+02
     492,    2.142857e+02,   -9.454545e+01,   -2.500000e+02
     493,    2.500000e+02,   -2.400000e+02,   -3.571429e+01
     494,    2.500000e+02,   -2.400000e+02,   -7.142857e+01
     495,    2.500000e+02,   -2.400000e+02,   -1.071429e+02
     496,    2.500000e+02,   -2.400000e+02,   -1.428571e+02
     497,    2.500000e+02,   -2.400000e+02,   -1.785714e+02
     498,    2.500000e+02,   -2.400000e+02,   -2.142857e+02
     499,    2.500000e+02,   -9.454545e+01,   -3.571429e+01
     500,    2.500000e+02,   -1.090909e+02,   -3.571429e+01
     501,    2.500000e+02,   -1.236364e+02,   -3.571429e+01
     502,    2.500000e+02,   -1.381818e+02,   -3.571429e+01
     503,    2.500000e+02,   -1.527273e+02,   -3.571429e+01
     504,    2.500000e+02,   -1.672727e+02,   -3.571429e+01
     505,    2.500000e+02,   -1.818182e+02,   -3.571429e+01
     506,    2.500000e+02,   -1.963636e+02,   -3.571429e+01
     507,    2.500000e+02,   -2.109091e+02,   -3.571429e+01
     508,    2.500000e+02,   -2.254545e+02,   -3.571429e+01
     509,    2.500000e+02,   -9.454545e+01,   -7.142857e+01
     510,    2.500000e+02,   -1.090909e+02,   -7.142857e+01
     511,    2.500000e+02,   -1.236364e+02,   -7.142857e+01
     512,    2.500000e+02,   -1.381818e+02,   -7.142857e+01
     513,    2.500000e+02,   -1.527273e+02,   -7.142857e+01
     514,    2.500000e+02,   -1.672727e+02,   -7.142857e+01
     515,    2.500000e+02,   -1.818182e+02,   -7.142857e+01
     516,    2.500000e+02,   -1.963636e+02,   -7.142857e+01
     517,    2.500000e+02,   -2.109091e+02,   -7.142857e+01
     518,    2.500000e+02,   -2.254545e+02,   -7.142857e+01
     519,    2.500000e+02,   -9.454545e+01,   -1.071429e+02
     520,    2.500000e+02,   -1.090909e+02,   -1.071429e+02
     521,    2.500000e+02,   -1.236364e+02,   -1.071429e+02
     522,    2.500000e+02,   -1.381818e+02,   -1.071429e+02
     523,    2.500000e+02,   -1.527273e+02,   -1.071429e+02
     524,    2.500000e+02,   -1.672727e+02,   -1.071429e+02
     525,    2.500000e+02,   -1.818182e+02,   -1.071429e+02
     526,    2.500000e+02,   -1.963636e+02,   -1.071429e+02
     527,    2.500000e+02,   -2.109091e+02,   -1.071429e+02
     528,    2.500000e+02,   -2.254545e+02,   -1.071429e+02
     529,    2.500000e+02,   -9.454545e+01,   -1.428571e+02
     530,    2.500000e+02,   -1.090909e+02,   -1.428571e+02
     531,    2.500000e+02,   -1.236364e+02,   -1.428571e+02
     532,    2.500000e+02,   -1.381818e+02,   -1.428571e+02
     533,    2.500000e+02,   -1.527273e+02,   -1.428571e+02
     534,    2.500000e+02,   -1.672727e+02,   -1.428571e+02
     535,    2.500000e+02,   -1.818182e+02,   -1.428571e+02
     536,    2.500000e+02,   -1.963636e+02,   -1.428571e+02
     537,    2.500000e+02,   -2.109091e+02,   -1.428571e+02
     538,    2.500000e+02,   -2.254545e+02,   -1.428571e+02
     539,    2.500000e+02,   -9.454545e+01,   -1.785714e+02
     540,    2.500000e+02,   -1.090909e+02,   -1.785714e+02
     541,    2.500000e+02,   -1.236364e+02,   -1.785714e+02
     542,    2.500000e+02,   -1.381818e+02,   -1.785714e+02
     543,    2.500000e+02,   -1.527273e+02,   -1.785714e+02
     544,    2.500000e+02,   -1.672727e+02,   -1.785714e+02
     545,    2.500000e+02,   -1.818182e+02,   -1.785714e+02
     546,    2.500000e+02,   -1.963636e+02,   -1.785714e+02
     547,    2.500000e+02,   -2.109091e+02,   -1.785714e+02
     548,    2.500000e+02,   -2.254545e+02,   -1.785714e+02
     549,    2.500000e+02,   -9.454545e+01,   -2.142857e+02
     550,    2.500000e+02,   -1.090909e+02,   -2.142857e+02
     551,    2.500000e+02,   -1.236364e+02,   -2.142857e+02
     552,    2.500000e+02,   -1.381818e+02,   -2.142857e+02
     553,    2.500000e+02,   -1.527273e+02,   -2.142857e+02
     554,    2.500000e+02,   -1.672727e+02,   -2.142857e+02
     555,    2.500000e+02,   -1.818182e+02,   -2.142857e+02
     556,    2.500000e+02,   -1.963636e+02,   -2.142857e+02
     557,    2.500000e+02,   -2.109091e+02,   -2.142857e+02
     558,    2.500000e+02,   -2.254545e+02,   -2.142857e+02
     559,    4.538103e+01,   -9.454545e+01,   -2.137852e+02
     560,    6.902303e+01,   -9.454545e+01,   -1.695474e+02
     561,    7.239803e+01,   -9.454545e+01,   -1.282148e+02
     562,    1.383771e+02,   -9.454545e+01,   -5.417171e+01
     563,    1.774758e+02,   -9.454545e+01,   -4.382370e+01
     564,    2.134872e+02,   -9.454545e+01,   -3.873703e+01
     565,    2.142322e+02,   -9.454545e+01,   -2.168002e+02
     566,    1.788374e+02,   -9.454545e+01,   -2.196510e+02
     567,    1.437522e+02,   -9.454545e+01,   -2.228285e+02
     568,    1.138549e+02,   -9.454545e+01,   -2.239570e+02
     569,    8.360391e+01,   -9.454545e+01,   -2.178716e+02
     570,    2.111318e+02,   -9.454545e+01,   -7.717347e+01
     571,    2.103167e+02,   -9.454545e+01,   -1.142292e+02
     572,    2.106282e+02,   -9.454545e+01,   -1.493860e+02
     573,    2.130447e+02,   -9.454545e+01,   -1.834662e+02
     574,    1.017887e+02,   -9.454545e+01,   -1.883513e+02
     575,    1.722379e+02,   -9.454545e+01,   -8.574087e+01
     576,    1.698759e+02,   -9.454545e+01,   -1.239318e+02
     577,    1.719410e+02,   -9.454545e+01,   -1.581940e+02
     578,    1.759869e+02,   -9.454545e+01,   -1.894699e+02
     579,    1.427763e+02,   -9.454545e+01,   -1.966467e+02
     580,    1.343552e+02,   -9.454545e+01,   -1.704209e+02
     581,    1.188007e+02,   -9.454545e+01,   -2.030760e+02
     582,    1.284572e+02,   -9.454545e+01,   -1.003688e+02
     583,    1.261811e+02,   -9.454545e+01,   -1.391208e+02
     584,    4.538103e+01,   -1.090909e+02,   -2.137852e+02
     585,    6.902303e+01,   -1.090909e+02,   -1.695474e+02
     586,    7.239803e+01,   -1.090909e+02,   -1.282148e+02
     587,    1.383771e+02,   -1.090909e+02,   -5.417171e+01
     588,    1.774758e+02,   -1.090909e+02,   -4.382370e+01
     589,    2.134872e+02,   -1.090909e+02,   -3.873703e+01
     590,    2.142322e+02,   -1.090909e+02,   -2.168002e+02
     591,    1.788374e+02,   -1.090909e+02,   -2.196510e+02
     592,    1.437522e+02,   -1.090909e+02,   -2.228285e+02
     593,    1.138549e+02,   -1.090909e+02,   -2.239570e+02
     594,    8.360391e+01,   -1.090909e+02,   -2.178716e+02
     595,    2.111318e+02,   -1.090909e+02,   -7.717347e+01
     596,    2.103167e+02,   -1.090909e+02,   -1.142292e+02
     597,    2.106282e+02,   -1.090909e+02,   -1.493860e+02
     598,    2.130447e+02,   -1.090909e+02,   -1.834662e+02
     599,    1.017887e+02,   -1.090909e+02,   -1.883513e+02
     600,    1.722379e+02,   -1.090909e+02,   -8.574087e+01
     601,    1.698759e+02,   -1.090909e+02,   -1.239318e+02
     602,    1.719410e+02,   -1.090909e+02,   -1.581940e+02
     603,    1.759869e+02,   -1.090909e+02,   -1.894699e+02
     604,    1.427763e+02,   -1.090909e+02,   -1.966467e+02
     605,    1.343552e+02,   -1.090909e+02,   -1.704209e+02
     606,    1.188007e+02,   -1.090909e+02,   -2.030760e+02
     607,    1.284572e+02,   -1.090909e+02,   -1.003688e+02
     608,    1.261811e+02,   -1.090909e+02,   -1.391208e+02
     609,    4.538103e+01,   -1.236364e+02,   -2.137852e+02
     610,    6.902303e+01,   -1.236364e+02,   -1.695474e+02
     611,    7.239803e+01,   -1.236364e+02,   -1.282148e+02
     612,    1.383771e+02,   -1.236364e+02,   -5.417171e+01
     613,    1.774758e+02,   -1.236364e+02,   -4.382370e+01
     614,    2.134872e+02,   -1.236364e+02,   -3.873703e+01
     615,    2.142322e+02,   -1.236364e+02,   -2.168002e+02
     616,    1.788374e+02,   -1.236364e+02,   -2.196510e+02
     617,    1.437522e+02,   -1.236364e+02,   -2.228285e+02
     618,    1.138549e+02,   -1.236364e+02,   -2.239570e+02
     619,    8.360391e+01,   -1.236364e+02,   -2.178716e+02
     620,    2.111318e+02,   -1.236364e+02,   -7.717347e+01
     621,    2.103167e+02,   -1.236364e+02,   -1.142292e+02
     622,    2.106282e+02,   -1.236364e+02,   -1.493860e+02
     623,    2.130447e+02,   -1.236364e+02,   -1.834662e+02
     624,    1.017887e+02,   -1.236364e+02,   -1.883513e+02
     625,    1.722379e+02,   -1.236364e+02,   -8.574087e+01
     626,    1.698759e+02,   -1.236364e+02,   -1.239318e+02
     627,    1.719410e+02,   -1.236364e+02,   -1.581940e+02
     628,    1.759869e+02,   -1.236364e+02,   -1.894699e+02
     629,    1.427763e+02,   -1.236364e+02,   -1.966467e+02
     630,    1.343552e+02,   -1.236364e+02,   -1.704209e+02
     631,    1.188007e+02,   -1.236364e+02,   -2.030760e+02
     632,    1.284572e+02,   -1.236364e+02,   -1.003688e+02
     633,    1.261811e+02,   -1.236364e+02,   -1.391208e+02
     634,    4.538103e+01,   -1.381818e+02,   -2.137852e+02
     635,    6.902303e+01,   -1.381818e+02,   -1.695474e+02
     636,    7.239803e+01,   -1.381818e+02,   -1.282148e+02
     637,    1.383771e+02,   -1.381818e+02,   -5.417171e+01
     638,    1.774758e+02,   -1.381818e+02,   -4.382370e+01
     639,    2.134872e+02,   -1.381818e+02,   -3.873703e+01
     640,    2.142322e+02,   -1.381818e+02,   -2.168002e+02
     641,    1.788374e+02,   -1.381818e+02,   -2.196510e+02
     642,    1.437522e+02,   -1.381818e+02,   -2.228285e+02
     643,    1.138549e+02,   -1.381818e+02,   -2.239570e+02
     644,    8.360391e+01,   -1.381818e+02,   -2.178716e+02
     645,    2.111318e+02,   -1.381818e+02,   -7.717347e+01
     646,    2.103167e+02,   -1.381818e+02,   -1.142292e+02
     647,    2.106282e+02,   -1.381818e+02,   -1.493860e+02
     648,    2.130447e+02,   -1.381818e+02,   -1.834662e+02
     649,    1.017887e+02,   -1.381818e+02,   -1.883513e+02
     650,    1.722379e+02,   -1.381818e+02,   -8.574087e+01
     651,    1.698759e+02,   -1.381818e+02,   -1.239318e+02
     652,    1.719410e+02,   -1.381818e+02,   -1.581940e+02
     653,    1.759869e+02,   -1.381818e+02,   -1.894699e+02
     654,    1.427763e+02,   -1.381818e+02,   -1.966467e+02
     655,    1.343552e+02,   -1.381818e+02,   -1.704209e+02
     656,    1.188007e+02,   -1.381818e+02,   -2.030760e+02
     657,    1.284572e+02,   -1.381818e+02,   -1.003688e+02
     658,    1.261811e+02,   -1.381818e+02,   -1.391208e+02
     659,    4.538103e+01,   -1.527273e+02,   -2.137852e+02
     660,    6.902303e+01,   -1.527273e+02,   -1.695474e+02
     661,    7.239803e+01,   -1.527273e+02,   -1.282148e+02
     662,    1.383771e+02,   -1.527273e+02,   -5.417171e+01
     663,    1.774758e+02,   -1.527273e+02,   -4.382370e+01
     664,    2.134872e+02,   -1.527273e+02,   -3.873703e+01
     665,    2.142322e+02,   -1.527273e+02,   -2.168002e+02
     666,    1.788374e+02,   -1.527273e+02,   -2.196510e+02
     667,    1.437522e+02,   -1.527273e+02,   -2.228285e+02
     668,    1.138549e+02,   -1.527273e+02,   -2.239570e+02
     669,    8.360391e+01,   -1.527273e+02,   -2.178716e+02
     670,    2.111318e+02,   -1.527273e+02,   -7.717347e+01
     671,    2.103167e+02,   -1.527273e+02,   -1.142292e+02
     672,    2.106282e+02,   -1.527273e+02,   -1.493860e+02
     673,    2.130447e+02,   -1.527273e+02,   -1.834662e+02
     674,    1.017887e+02,   -1.527273e+02,   -1.883513e+02
     675,    1.722379e+02,   -1.527273e+02,   -8.574087e+01
     676,    1.698759e+02,   -1.527273e+02,   -1.239318e+02
     677,    1.719410e+02,   -1.527273e+02,   -1.581940e+02
     678,    1.759869e+02,   -1.527273e+02,   -1.894699e+02
     679,    1.427763e+02,   -1.527273e+02,   -1.966467e+02
     680,    1.343552e+02,   -1.527273e+02,   -1.704209e+02
     681,    1.188007e+02,   -1.527273e+02,   -2.030760e+02
     682,    1.284572e+02,   -1.527273e+02,   -1.003688e+02
     683,    1.261811e+02,   -1.527273e+02,   -1.391208e+02
     684,    4.538103e+01,   -1.672727e+02,   -2.137852e+02
     685,    6.902303e+01,   -1.672727e+02,   -1.695474e+02
     686,    7.239803e+01,   -1.672727e+02,   -1.282148e+02
     687,    1.383771e+02,   -1.672727e+02,   -5.417171e+01
     688,    1.774758e+02,   -1.672727e+02,   -4.382370e+01
     689,    2.134872e+02,   -1.672727e+02,   -3.873703e+01
     690,    2.142322e+02,   -1.672727e+02,   -2.168002e+02
     691,    1.788374e+02,   -1.672727e+02,   -2.196510e+02
     692,    1.437522e+02,   -1.672727e+02,   -2.228285e+02
     693,    1.138549e+02,   -1.672727e+02,   -2.239570e+02
     694,    8.360391e+01,   -1.672727e+02,   -2.178716e+02
     695,    2.111318e+02,   -1.672727e+02,   -7.717347e+01
     696,    2.103167e+02,   -1.672727e+02,   -1.142292e+02
     697,    2.106282e+02,   -1.672727e+02,   -1.493860e+02
     698,    2.130447e+02,   -1.672727e+02,   -1.834662e+02
     699,    1.017887e+02,   -1.672727e+02,   -1.883513e+02
     700,    1.722379e+02,   -1.672727e+02,   -8.574087e+01
     701,    1.698759e+02,   -1.672727e+02,   -1.239318e+02
     702,    1.719410e+02,   -1.672727e+02,   -1.581940e+02
     703,    1.759869e+02,   -1.672727e+02,   -1.894699e+02
     704,    1.427763e+02,   -1.672727e+02,   -1.966467e+02
     705,    1.343552e+02,   -1.672727e+02,   -1.704209e+02
     706,    1.188007e+02,   -1.672727e+02,   -2.030760e+02
     707,    1.284572e+02,   -1.672727e+02,   -1.003688e+02
     708,    1.261811e+02,   -1.672727e+02,   -1.391208e+02
     709,    4.538103e+01,   -1.818182e+02,   -2.137852e+02
     710,    6.902303e+01,   -1.818182e+02,   -1.695474e+02
     711,    7.239803e+01,   -1.818182e+02,   -1.282148e+02
     712,    1.383771e+02,   -1.818182e+02,   -5.417171e+01
     713,    1.774758e+02,   -1.818182e+02,   -4.382370e+01
     714,    2.134872e+02,   -1.818182e+02,   -3.873703e+01
     715,    2.142322e+02,   -1.818182e+02,   -2.168002e+02
     716,    1.788374e+02,   -1.818182e+02,   -2.196510e+02
     717,    1.437522e+02,   -1.818182e+02,   -2.228285e+02
     718,    1.138549e+02,   -1.818182e+02,   -2.239570e+02
     719,    8.360391e+01,   -1.818182e+02,   -2.178716e+02
     720,    2.111318e+02,   -1.818182e+02,   -7.717347e+01
     721,    2.103167e+02,   -1.818182e+02,   -1.142292e+02
     722,    2.106282e+02,   -1.818182e+02,   -1.493860e+02
     723,    2.130447e+02,   -1.818182e+02,   -1.834662e+02
     724,    1.017887e+02,   -1.818182e+02,   -1.883513e+02
     725,    1.722379e+02,   -1.818182e+02,   -8.574087e+01
     726,    1.698759e+02,   -1.818182e+02,   -1.239318e+02
     727,    1.719410e+02,   -1.818182e+02,   -1.581940e+02
     728,    1.759869e+02,   -1.818182e+02,   -1.894699e+02
     729,    1.427763e+02,   -1.818182e+02,   -1.966467e+02
     730,    1.343552e+02,   -1.818182e+02,   -1.704209e+02
     731,    1.188007e+02,   -1.818182e+02,   -2.030760e+02
     732,    1.284572e+02,   -1.818182e+02,   -1.003688e+02
     733,    1.261811e+02,   -1.818182e+02,   -1.391208e+02
     734,    4.538103e+01,   -1.963636e+02,   -2.137852e+02
     735,    6.902303e+01,   -1.963636e+02,   -1.695474e+02
     736,    7.239803e+01,   -1.963636e+02,   -1.282148e+02
     737,    1.383771e+02,   -1.963636e+02,   -5.417171e+01
     738,    1.774758e+02,   -1.963636e+02,   -4.382370e+01
     739,    2.134872e+02,   -1.963636e+02,   -3.873703e+01
     740,    2.142322e+02,   -1.963636e+02,   -2.168002e+02
     741,    1.788374e+02,   -1.963636e+02,   -2.196510e+02
     742,    1.437522e+02,   -1.963636e+02,   -2.228285e+02
     743,    1.138549e+02,   -1.963636e+02,   -2.239570e+02
     744,    8.360391e+01,   -1.963636e+02,   -2.178716e+02
     745,    2.111318e+02,   -1.963636e+02,   -7.717347e+01
     746,    2.103167e+02,   -1.963636e+02,   -1.142292e+02
     747,    2.106282e+02,   -1.963636e+02,   -1.493860e+02
     748,    2.130447e+02,   -1.963636e+02,   -1.834662e+02
     749,    1.017887e+02,   -1.963636e+02,   -1.883513e+02
     750,    1.722379e+02,   -1.963636e+02,   -8.574087e+01
     751,    1.698759e+02,   -1.963636e+02,   -1.239318e+02
     752,    1.719410e+02,   -1.963636e+02,   -1.581940e+02
     753,    1.759869e+02,   -1.963636e+02,   -1.894699e+02
     754,    1.427763e+02,   -1.963636e+02,   -1.966467e+02
     755,    1.343552e+02,   -1.963636e+02,   -1.704209e+02
     756,    1.188007e+02,   -1.963636e+02,   -2.030760e+02
     757,    1.284572e+02,   -1.963636e+02,   -1.003688e+02
     758,    1.261811e+02,   -1.963636e+02,   -1.391208e+02
     759,    4.538103e+01,   -2.109091e+02,   -2.137852e+02
     760,    6.902303e+01,   -2.109091e+02,   -1.695474e+02
     761,    7.239803e+01,   -2.109091e+02,   -1.282148e+02
     762,    1.383771e+02,   -2.109091e+02,   -5.417171e+01
     763,    1.774758e+02,   -2.109091e+02,   -4.382370e+01
     764,    2.134872e+02,   -2.109091e+02,   -3.873703e+01
     765,    2.142322e+02,   -2.109091e+02,   -2.168002e+02
     766,    1.788374e+02,   -2.109091e+02,   -2.196510e+02
     767,    1.437522e+02,   -2.109091e+02,   -2.228285e+02
     768,    1.138549e+02,   -2.109091e+02,   -2.239570e+02
     769,    8.360391e+01,   -2.109091e+02,   -2.178716e+02
     770,    2.111318e+02,   -2.109091e+02,   -7.717347e+01
     771,    2.103167e+02,   -2.109091e+02,   -1.142292e+02
     772,    2.106282e+02,   -2.109091e+02,   -1.493860e+02
     773,    2.130447e+02,   -2.109091e+02,   -1.834662e+02
     774,    1.017887e+02,   -2.109091e+02,   -1.883513e+02
     775,    1.722379e+02,   -2.109091e+02,   -8.574087e+01
     776,    1.698759e+02,   -2.109091e+02,   -1.239318e+02
     777,    1.719410e+02,   -2.109091e+02,   -1.581940e+02
     778,    1.759869e+02,   -2.109091e+02,   -1.894699e+02
     779,    1.427763e+02,   -2.109091e+02,   -1.966467e+02
     780,    1.343552e+02,   -2.109091e+02,   -1.704209e+02
     781,    1.188007e+02,   -2.109091e+02,   -2.030760e+02
     782,    1.284572e+02,   -2.109091e+02,   -1.003688e+02
     783,    1.261811e+02,   -2.109091e+02,   -1.391208e+02
     784,    4.538103e+01,   -2.254545e+02,   -2.137852e+02
     785,    6.902303e+01,   -2.254545e+02,   -1.695474e+02
     786,    7.239803e+01,   -2.254545e+02,   -1.282148e+02
     787,    1.383771e+02,   -2.254545e+02,   -5.417171e+01
     788,    1.774758e+02,   -2.254545e+02,   -4.382370e+01
     789,    2.134872e+02,   -2.254545e+02,   -3.873703e+01
     790,    2.142322e+02,   -2.254545e+02,   -2.168002e+02
     791,    1.788374e+02,   -2.254545e+02,   -2.196510e+02
     792,    1.437522e+02,   -2.254545e+02,   -2.228285e+02
     793,    1.138549e+02,   -2.254545e+02,   -2.239570e+02
     794,    8.360391e+01,   -2.254545e+02,   -2.178716e+02
     795,    2.111318e+02,   -2.254545e+02,   -7.717347e+01
     796,    2.103167e+02,   -2.254545e+02,   -1.142292e+02
     797,    2.106282e+02,   -2.254545e+02,   -1.493860e+02
     798,    2.130447e+02,   -2.254545e+02,   -1.834662e+02
     799,    1.017887e+02,   -2.254545e+02,   -1.883513e+02
     800,    1.722379e+02,   -2.254545e+02,   -8.574087e+01
     801,    1.698759e+02,   -2.254545e+02,   -1.239318e+02
     802,    1.719410e+02,   -2.254545e+02,   -1.581940e+02
     803,    1.759869e+02,   -2.254545e+02,   -1.894699e+02
     804,    1.427763e+02,   -2.254545e+02,   -1.966467e+02
     805,    1.343552e+02,   -2.254545e+02,   -1.704209e+02
     806,    1.188007e+02,   -2.254545e+02,   -2.030760e+02
     807,    1.284572e+02,   -2.254545e+02,   -1.003688e+02
     808,    1.261811e+02,   -2.254545e+02,   -1.391208e+02
     809,    4.538103e+01,   -2.400000e+02,   -2.137852e+02
     810,    6.902303e+01,   -2.400000e+02,   -1.695474e+02
     811,    7.239803e+01,   -2.400000e+02,   -1.282148e+02
     812,    1.383771e+02,   -2.400000e+02,   -5.417171e+01
     813,    1.774758e+02,   -2.400000e+02,   -4.382370e+01
     814,    2.134872e+02,   -2.400000e+02,   -3.873703e+01
     815,    2.142322e+02,   -2.400000e+02,   -2.168002e+02
     816,    1.788374e+02,   -2.400000e+02,   -2.196510e+02
     817,    1.437522e+02,   -2.400000e+02,   -2.228285e+02
     818,    1.138549e+02,   -2.400000e+02,   -2.239570e+02
     819,    8.360391e+01,   -2.400000e+02,   -2.178716e+02
     820,    2.111318e+02,   -2.400000e+02,   -7.717347e+01
     821,    2.103167e+02,   -2.400000e+02,   -1.142292e+02
     822,    2.106282e+02,   -2.400000e+02,   -1.493860e+02
     823,    2.130447e+02,   -2.400000e+02,   -1.834662e+02
     824,    1.017887e+02,   -2.400000e+02,   -1.883513e+02
     825,    1.722379e+02,   -2.400000e+02,   -8.574087e+01
     826,    1.698759e+02,   -2.400000e+02,   -1.239318e+02
     827,    1.719410e+02,   -2.400000e+02,   -1.581940e+02
     828,    1.759869e+02,   -2.400000e+02,   -1.894699e+02
     829,    1.427763e+02,   -2.400000e+02,   -1.966467e+02
     830,    1.343552e+02,   -2.400000e+02,   -1.704209e+02
     831,    1.188007e+02,   -2.400000e+02,   -2.030760e+02
     832,    1.284572e+02,   -2.400000e+02,   -1.003688e+02
     833,    1.261811e+02,   -2.400000e+02,   -1.391208e+02
    1203,    0.000000e+00,   -8.000000e+01,   -1.100000e+01
    1204,    0.000000e+00,   -8.000000e+01,    0.000000e+00
    1205,    0.000000e+00,   -8.000000e+01,   -5.500000e+00
    1206,    1.100000e+01,   -8.000000e+01,    0.000000e+00
    1207,    5.500000e+00,   -8.000000e+01,    0.000000e+00
    1208,    7.778175e+00,   -8.000000e+01,   -7.778175e+00
    1209,    4.426058e+00,   -8.000000e+01,   -4.426058e+00
    1210,    0.000000e+00,   -2.400000e+02,    0.000000e+00
    1211,    0.000000e+00,   -9.454545e+01,    0.000000e+00
    1212,    0.000000e+00,   -1.090909e+02,    0.000000e+00
    1213,    0.000000e+00,   -1.236364e+02,    0.000000e+00
    1214,    0.000000e+00,   -1.381818e+02,    0.000000e+00
    1215,    0.000000e+00,   -1.527273e+02,    0.000000e+00
    1216,    0.000000e+00,   -1.672727e+02,    0.000000e+00
    1217,    0.000000e+00,   -1.818182e+02,    0.000000e+00
    1218,    0.000000e+00,   -1.963636e+02,    0.000000e+00
    1219,    0.000000e+00,   -2.109091e+02,    0.000000e+00
    1220,    0.000000e+00,   -2.254545e+02,    0.000000e+00
    1221,    0.000000e+00,   -2.400000e+02,   -1.100000e+01
    1222,    0.000000e+00,   -2.254545e+02,   -1.100000e+01
    1223,    0.000000e+00,   -2.109091e+02,   -1.100000e+01
    1224,    0.000000e+00,   -1.963636e+02,   -1.100000e+01
    1225,    0.000000e+00,   -1.818182e+02,   -1.100000e+01
    1226,    0.000000e+00,   -1.672727e+02,   -1.100000e+01
    1227,    0.000000e+00,   -1.527273e+02,   -1.100000e+01
    1228,    0.000000e+00,   -1.381818e+02,   -1.100000e+01
    1229,    0.000000e+00,   -1.236364e+02,   -1.100000e+01
    1230,    0.000000e+00,   -1.090909e+02,   -1.100000e+01
    1231,    0.000000e+00,   -9.454545e+01,   -1.100000e+01
    1232,    0.000000e+00,   -2.400000e+02,   -5.500000e+00
    1233,    0.000000e+00,   -2.254545e+02,   -5.500000e+00
    1234,    0.000000e+00,   -2.109091e+02,   -5.500000e+00
    1235,    0.000000e+00,   -1.963636e+02,   -5.500000e+00
    1236,    0.000000e+00,   -1.818182e+02,   -5.500000e+00
    1237,    0.000000e+00,   -1.672727e+02,   -5.500000e+00
    1238,    0.000000e+00,   -1.527273e+02,   -5.500000e+00
    1239,    0.000000e+00,   -1.381818e+02,   -5.500000e+00
    1240,    0.000000e+00,   -1.236364e+02,   -5.500000e+00
    1241,    0.000000e+00,   -1.090909e+02,   -5.500000e+00
    1242,    0.000000e+00,   -9.454545e+01,   -5.500000e+00
    1243,    1.100000e+01,   -2.400000e+02,    0.000000e+00
    1244,    1.100000e+01,   -2.254545e+02,   -4.007935e-15
    1245,    1.100000e+01,   -2.109091e+02,   -3.117283e-15
    1246,    1.100000e+01,   -1.963636e+02,   -2.226631e-15
    1247,    1.100000e+01,   -1.818182e+02,   -1.335978e-15
    1248,    1.100000e+01,   -1.672727e+02,   -4.453261e-16
    1249,    1.100000e+01,   -1.527273e+02,    4.453261e-16
    1250,    1.100000e+01,   -1.381818e+02,    1.335978e-15
    1251,    1.100000e+01,   -1.236364e+02,    2.226631e-15
    1252,    1.100000e+01,   -1.090909e+02,    3.117283e-15
    1253,    1.100000e+01,   -9.454545e+01,    4.007935e-15
    1254,    7.778175e+00,   -2.400000e+02,   -7.778175e+00
    1255,    7.778175e+00,   -2.254545e+02,   -7.778175e+00
    1256,    7.778175e+00,   -2.109091e+02,   -7.778175e+00
    1257,    7.778175e+00,   -1.963636e+02,   -7.778175e+00
    1258,    7.778175e+00,   -1.818182e+02,   -7.778175e+00
    1259,    7.778175e+00,   -1.672727e+02,   -7.778175e+00
    1260,    7.778175e+00,   -1.527273e+02,   -7.778175e+00
    1261,    7.778175e+00,   -1.381818e+02,   -7.778175e+00
    1262,    7.778175e+00,   -1.236364e+02,   -7.778175e+00
    1263,    7.778175e+00,   -1.090909e+02,   -7.778175e+00
    1264,    7.778175e+00,   -9.454545e+01,   -7.778175e+00
    1265,    5.500000e+00,   -2.400000e+02,    0.000000e+00
    1266,    5.500000e+00,   -9.454545e+01,    0.000000e+00
    1267,    5.500000e+00,   -1.090909e+02,    0.000000e+00
    1268,    5.500000e+00,   -1.236364e+02,    0.000000e+00
    1269,    5.500000e+00,   -1.381818e+02,    0.000000e+00
    1270,    5.500000e+00,   -1.527273e+02,    0.000000e+00
    1271,    5.500000e+00,   -1.672727e+02,    0.000000e+00
    1272,    5.500000e+00,   -1.818182e+02,    0.000000e+00
    1273,    5.500000e+00,   -1.963636e+02,    0.000000e+00
    1274,    5.500000e+00,   -2.109091e+02,    0.000000e+00
    1275,    5.500000e+00,   -2.254545e+02,    0.000000e+00
    1276,    4.426058e+00,   -9.454545e+01,   -4.426058e+00
    1277,    4.426058e+00,   -1.090909e+02,   -4.426058e+00
    1278,    4.426058e+00,   -1.236364e+02,   -4.426058e+00
    1279,    4.426058e+00,   -1.381818e+02,   -4.426058e+00
    1280,    4.426058e+00,   -1.527273e+02,   -4.426058e+00
    1281,    4.426058e+00,   -1.672727e+02,   -4.426058e+00
    1282,    4.426058e+00,   -1.818182e+02,   -4.426058e+00
    1283,    4.426058e+00,   -1.963636e+02,   -4.426058e+00
    1284,    4.426058e+00,   -2.109091e+02,   -4.426058e+00
    1285,    4.426058e+00,   -2.254545e+02,   -4.426058e+00
    1286,    4.426058e+00,   -2.400000e+02,   -4.426058e+00
    1287,   -2.500000e+02,   -8.000000e+01,   -2.500000e+02
    1288,   -2.142857e+02,   -8.000000e+01,   -2.500000e+02
    1289,   -1.785714e+02,   -8.000000e+01,   -2.500000e+02
    1290,   -1.428571e+02,   -8.000000e+01,   -2.500000e+02
    1291,   -1.071429e+02,   -8.000000e+01,   -2.500000e+02
    1292,   -7.142857e+01,   -8.000000e+01,   -2.500000e+02
    1293,   -3.571429e+01,   -8.000000e+01,   -2.500000e+02
    1294,   -2.500000e+02,   -8.000000e+01,    0.000000e+00
    1295,   -2.500000e+02,   -8.000000e+01,   -3.571429e+01
    1296,   -2.500000e+02,   -8.000000e+01,   -7.142857e+01
    1297,   -2.500000e+02,   -8.000000e+01,   -1.071429e+02
    1298,   -2.500000e+02,   -8.000000e+01,   -1.428571e+02
    1299,   -2.500000e+02,   -8.000000e+01,   -1.785714e+02
    1300,   -2.500000e+02,   -8.000000e+01,   -2.142857e+02
    1301,   -1.200000e+02,   -8.000000e+01,   -1.959435e-14
    1302,   -1.525000e+02,   -8.000000e+01,    0.000000e+00
    1303,   -1.850000e+02,   -8.000000e+01,    0.000000e+00
    1304,   -2.175000e+02,   -8.000000e+01,    0.000000e+00
    1305,   -8.485281e+01,   -8.000000e+01,   -8.485281e+01
    1306,   -7.460712e+01,   -8.000000e+01,   -1.314812e+02
    1307,   -4.749014e+01,   -8.000000e+01,   -1.792809e+02
    1308,   -3.952587e+01,   -8.000000e+01,   -2.158615e+02
    1309,   -2.143675e+02,   -8.000000e+01,   -3.861692e+01
    1310,   -1.394960e+02,   -8.000000e+01,   -5.325721e+01
    1311,   -7.699760e+01,   -8.000000e+01,   -2.168664e+02
    1312,   -1.115463e+02,   -8.000000e+01,   -2.189851e+02
    1313,   -1.448988e+02,   -8.000000e+01,   -2.188785e+02
    1314,   -1.796782e+02,   -8.000000e+01,   -2.174912e+02
    1315,   -2.147166e+02,   -8.000000e+01,   -2.158933e+02
    1316,   -2.147047e+02,   -8.000000e+01,   -1.817097e+02
    1317,   -2.133939e+02,   -8.000000e+01,   -1.474125e+02
    1318,   -2.109599e+02,   -8.000000e+01,   -1.125271e+02
    1319,   -2.122614e+02,   -8.000000e+01,   -7.650898e+01
    1320,   -1.743402e+02,   -8.000000e+01,   -8.449678e+01
    1321,   -1.039130e+02,   -8.000000e+01,   -1.521965e+02
    1322,   -8.686404e+01,   -8.000000e+01,   -1.836139e+02
    1323,   -1.798407e+02,   -8.000000e+01,   -1.851685e+02
    1324,   -1.778796e+02,   -8.000000e+01,   -1.536348e+02
    1325,   -1.744260e+02,   -8.000000e+01,   -1.209699e+02
    1326,   -1.463455e+02,   -8.000000e+01,   -1.888011e+02
    1327,   -1.162877e+02,   -8.000000e+01,   -1.900174e+02
    1328,   -1.218073e+02,   -8.000000e+01,   -1.676800e+02
    1329,   -1.455735e+02,   -8.000000e+01,   -1.611071e+02
    1330,   -1.783295e+02,   -8.000000e+01,   -4.331821e+01
    1331,   -1.378445e+02,   -8.000000e+01,   -1.334891e+02
    1332,   -1.318990e+02,   -8.000000e+01,   -9.894454e+01
    1333,   -2.500000e+02,    0.000000e+00,   -2.500000e+02
    1334,   -2.500000e+02,   -6.400000e+01,   -2.500000e+02
    1335,   -2.500000e+02,   -4.800000e+01,   -2.500000e+02
    1336,   -2.500000e+02,   -3.200000e+01,   -2.500000e+02
    1337,   -2.500000e+02,   -1.600000e+01,   -2.500000e+02
    1338,   -2.142857e+02,    0.000000e+00,   -2.500000e+02
    1339,   -1.785714e+02,    0.000000e+00,   -2.500000e+02
    1340,   -1.428571e+02,    0.000000e+00,   -2.500000e+02
    1341,   -1.071429e+02,    0.000000e+00,   -2.500000e+02
    1342,   -7.142857e+01,    0.000000e+00,   -2.500000e+02
    1343,   -3.571429e+01,    0.000000e+00,   -2.500000e+02
    1344,   -3.571429e+01,   -1.600000e+01,   -2.500000e+02
    1345,   -3.571429e+01,   -3.200000e+01,   -2.500000e+02
    1346,   -3.571429e+01,   -4.800000e+01,   -2.500000e+02
    1347,   -3.571429e+01,   -6.400000e+01,   -2.500000e+02
    1348,   -7.142857e+01,   -1.600000e+01,   -2.500000e+02
    1349,   -7.142857e+01,   -3.200000e+01,   -2.500000e+02
    1350,   -7.142857e+01,   -4.800000e+01,   -2.500000e+02
    1351,   -7.142857e+01,   -6.400000e+01,   -2.500000e+02
    1352,   -1.071429e+02,   -1.600000e+01,   -2.500000e+02
    1353,   -1.071429e+02,   -3.200000e+01,   -2.500000e+02
    1354,   -1.071429e+02,   -4.800000e+01,   -2.500000e+02
    1355,   -1.071429e+02,   -6.400000e+01,   -2.500000e+02
    1356,   -1.428571e+02,   -1.600000e+01,   -2.500000e+02
    1357,   -1.428571e+02,   -3.200000e+01,   -2.500000e+02
    1358,   -1.428571e+02,   -4.800000e+01,   -2.500000e+02
    1359,   -1.428571e+02,   -6.400000e+01,   -2.500000e+02
    1360,   -1.785714e+02,   -1.600000e+01,   -2.500000e+02
    1361,   -1.785714e+02,   -3.200000e+01,   -2.500000e+02
    1362,   -1.785714e+02,   -4.800000e+01,   -2.500000e+02
    1363,   -1.785714e+02,   -6.400000e+01,   -2.500000e+02
    1364,   -2.142857e+02,   -1.600000e+01,   -2.500000e+02
    1365,   -2.142857e+02,   -3.200000e+01,   -2.500000e+02
    1366,   -2.142857e+02,   -4.800000e+01,   -2.500000e+02
    1367,   -2.142857e+02,   -6.400000e+01,   -2.500000e+02
    1368,   -1.200000e+02,    0.000000e+00,   -1.469576e-14
    1369,   -1.200000e+02,   -6.400000e+01,   -3.918870e-15
    1370,   -1.200000e+02,   -4.800000e+01,   -2.939152e-15
    1371,   -1.200000e+02,   -3.200000e+01,   -1.959435e-15
    1372,   -1.200000e+02,   -1.600000e+01,   -9.797174e-16
    1373,   -2.500000e+02,    0.000000e+00,    0.000000e+00
    1374,   -1.525000e+02,    0.000000e+00,    0.000000e+00
    1375,   -1.850000e+02,    0.000000e+00,    0.000000e+00
    1376,   -2.175000e+02,    0.000000e+00,    0.000000e+00
    1377,   -2.500000e+02,   -1.600000e+01,    0.000000e+00
    1378,   -2.500000e+02,   -3.200000e+01,    0.000000e+00
    1379,   -2.500000e+02,   -4.800000e+01,    0.000000e+00
    1380,   -2.500000e+02,   -6.400000e+01,    0.000000e+00
    1381,   -1.525000e+02,   -6.400000e+01,    0.000000e+00
    1382,   -1.525000e+02,   -4.800000e+01,    0.000000e+00
    1383,   -1.525000e+02,   -3.200000e+01,    0.000000e+00
    1384,   -1.525000e+02,   -1.600000e+01,    0.000000e+00
    1385,   -1.850000e+02,   -6.400000e+01,    0.000000e+00
    1386,   -1.850000e+02,   -4.800000e+01,    0.000000e+00
    1387,   -1.850000e+02,   -3.200000e+01,    0.000000e+00
    1388,   -1.850000e+02,   -1.600000e+01,    0.000000e+00
    1389,   -2.175000e+02,   -6.400000e+01,    0.000000e+00
    1390,   -2.175000e+02,   -4.800000e+01,    0.000000e+00
    1391,   -2.175000e+02,   -3.200000e+01,    0.000000e+00
    1392,   -2.175000e+02,   -1.600000e+01,    0.000000e+00
    1393,   -8.485281e+01,    0.000000e+00,   -8.485281e+01
    1394,   -8.485281e+01,   -6.400000e+01,   -8.485281e+01
    1395,   -8.485281e+01,   -4.800000e+01,   -8.485281e+01
    1396,   -8.485281e+01,   -3.200000e+01,   -8.485281e+01
    1397,   -8.485281e+01,   -1.600000e+01,   -8.485281e+01
    1398,   -2.500000e+02,    0.000000e+00,   -3.571429e+01
    1399,   -2.500000e+02,    0.000000e+00,   -7.142857e+01
    1400,   -2.500000e+02,    0.000000e+00,   -1.071429e+02
    1401,   -2.500000e+02,    0.000000e+00,   -1.428571e+02
    1402,   -2.500000e+02,    0.000000e+00,   -1.785714e+02
    1403,   -2.500000e+02,    0.000000e+00,   -2.142857e+02
    1404,   -2.500000e+02,   -6.400000e+01,   -3.571429e+01
    1405,   -2.500000e+02,   -4.800000e+01,   -3.571429e+01
    1406,   -2.500000e+02,   -3.200000e+01,   -3.571429e+01
    1407,   -2.500000e+02,   -1.600000e+01,   -3.571429e+01
    1408,   -2.500000e+02,   -6.400000e+01,   -7.142857e+01
    1409,   -2.500000e+02,   -4.800000e+01,   -7.142857e+01
    1410,   -2.500000e+02,   -3.200000e+01,   -7.142857e+01
    1411,   -2.500000e+02,   -1.600000e+01,   -7.142857e+01
    1412,   -2.500000e+02,   -6.400000e+01,   -1.071429e+02
    1413,   -2.500000e+02,   -4.800000e+01,   -1.071429e+02
    1414,   -2.500000e+02,   -3.200000e+01,   -1.071429e+02
    1415,   -2.500000e+02,   -1.600000e+01,   -1.071429e+02
    1416,   -2.500000e+02,   -6.400000e+01,   -1.428571e+02
    1417,   -2.500000e+02,   -4.800000e+01,   -1.428571e+02
    1418,   -2.500000e+02,   -3.200000e+01,   -1.428571e+02
    1419,   -2.500000e+02,   -1.600000e+01,   -1.428571e+02
    1420,   -2.500000e+02,   -6.400000e+01,   -1.785714e+02
    1421,   -2.500000e+02,   -4.800000e+01,   -1.785714e+02
    1422,   -2.500000e+02,   -3.200000e+01,   -1.785714e+02
    1423,   -2.500000e+02,   -1.600000e+01,   -1.785714e+02
    1424,   -2.500000e+02,   -6.400000e+01,   -2.142857e+02
    1425,   -2.500000e+02,   -4.800000e+01,   -2.142857e+02
    1426,   -2.500000e+02,   -3.200000e+01,   -2.142857e+02
    1427,   -2.500000e+02,   -1.600000e+01,   -2.142857e+02
    1428,   -7.460712e+01,   -6.400000e+01,   -1.314812e+02
    1429,   -4.749014e+01,   -6.400000e+01,   -1.792809e+02
    1430,   -3.952587e+01,   -6.400000e+01,   -2.158615e+02
    1431,   -2.143675e+02,   -6.400000e+01,   -3.861692e+01
    1432,   -1.783295e+02,   -6.400000e+01,   -4.331821e+01
    1433,   -1.394960e+02,   -6.400000e+01,   -5.325721e+01
    1434,   -7.699760e+01,   -6.400000e+01,   -2.168664e+02
    1435,   -1.115463e+02,   -6.400000e+01,   -2.189851e+02
    1436,   -1.448988e+02,   -6.400000e+01,   -2.188785e+02
    1437,   -1.796782e+02,   -6.400000e+01,   -2.174912e+02
    1438,   -2.147166e+02,   -6.400000e+01,   -2.158933e+02
    1439,   -2.147047e+02,   -6.400000e+01,   -1.817097e+02
    1440,   -2.133939e+02,   -6.400000e+01,   -1.474125e+02
    1441,   -2.109599e+02,   -6.400000e+01,   -1.125271e+02
    1442,   -2.122614e+02,   -6.400000e+01,   -7.650898e+01
    1443,   -1.743402e+02,   -6.400000e+01,   -8.449678e+01
    1444,   -1.039130e+02,   -6.400000e+01,   -1.521965e+02
    1445,   -8.686404e+01,   -6.400000e+01,   -1.836139e+02
    1446,   -1.798407e+02,   -6.400000e+01,   -1.851685e+02
    1447,   -1.778796e+02,   -6.400000e+01,   -1.536348e+02
    1448,   -1.744260e+02,   -6.400000e+01,   -1.209699e+02
    1449,   -1.463455e+02,   -6.400000e+01,   -1.888011e+02
    1450,   -1.455735e+02,   -6.400000e+01,   -1.611071e+02
    1451,   -1.162877e+02,   -6.400000e+01,   -1.900174e+02
    1452,   -1.378445e+02,   -6.400000e+01,   -1.334891e+02
    1453,   -1.218073e+02,   -6.400000e+01,   -1.676800e+02
    1454,   -1.318990e+02,   -6.400000e+01,   -9.894454e+01
    1455,   -7.460712e+01,   -4.800000e+01,   -1.314812e+02
    1456,   -4.749014e+01,   -4.800000e+01,   -1.792809e+02
    1457,   -3.952587e+01,   -4.800000e+01,   -2.158615e+02
    1458,   -2.143675e+02,   -4.800000e+01,   -3.861692e+01
    1459,   -1.783295e+02,   -4.800000e+01,   -4.331821e+01
    1460,   -1.394960e+02,   -4.800000e+01,   -5.325721e+01
    1461,   -7.699760e+01,   -4.800000e+01,   -2.168664e+02
    1462,   -1.115463e+02,   -4.800000e+01,   -2.189851e+02
    1463,   -1.448988e+02,   -4.800000e+01,   -2.188785e+02
    1464,   -1.796782e+02,   -4.800000e+01,   -2.174912e+02
    1465,   -2.147166e+02,   -4.800000e+01,   -2.158933e+02
    1466,   -2.147047e+02,   -4.800000e+01,   -1.817097e+02
    1467,   -2.133939e+02,   -4.800000e+01,   -1.474125e+02
    1468,   -2.109599e+02,   -4.800000e+01,   -1.125271e+02
    1469,   -2.122614e+02,   -4.800000e+01,   -7.650898e+01
    1470,   -1.743402e+02,   -4.800000e+01,   -8.449678e+01
    1471,   -1.039130e+02,   -4.800000e+01,   -1.521965e+02
    1472,   -8.686404e+01,   -4.800000e+01,   -1.836139e+02
    1473,   -1.798407e+02,   -4.800000e+01,   -1.851685e+02
    1474,   -1.778796e+02,   -4.800000e+01,   -1.536348e+02
    1475,   -1.744260e+02,   -4.800000e+01,   -1.209699e+02
    1476,   -1.463455e+02,   -4.800000e+01,   -1.888011e+02
    1477,   -1.455735e+02,   -4.800000e+01,   -1.611071e+02
    1478,   -1.162877e+02,   -4.800000e+01,   -1.900174e+02
    1479,   -1.378445e+02,   -4.800000e+01,   -1.334891e+02
    1480,   -1.218073e+02,   -4.800000e+01,   -1.676800e+02
    1481,   -1.318990e+02,   -4.800000e+01,   -9.894454e+01
    1482,   -7.460712e+01,   -3.200000e+01,   -1.314812e+02
    1483,   -4.749014e+01,   -3.200000e+01,   -1.792809e+02
    1484,   -3.952587e+01,   -3.200000e+01,   -2.158615e+02
    1485,   -2.143675e+02,   -3.200000e+01,   -3.861692e+01
    1486,   -1.783295e+02,   -3.200000e+01,   -4.331821e+01
    1487,   -1.394960e+02,   -3.200000e+01,   -5.325721e+01
    1488,   -7.699760e+01,   -3.200000e+01,   -2.168664e+02
    1489,   -1.115463e+02,   -3.200000e+01,   -2.189851e+02
    1490,   -1.448988e+02,   -3.200000e+01,   -2.188785e+02
    1491,   -1.796782e+02,   -3.200000e+01,   -2.174912e+02
    1492,   -2.147166e+02,   -3.200000e+01,   -2.158933e+02
    1493,   -2.147047e+02,   -3.200000e+01,   -1.817097e+02
    1494,   -2.133939e+02,   -3.200000e+01,   -1.474125e+02
    1495,   -2.109599e+02,   -3.200000e+01,   -1.125271e+02
    1496,   -2.122614e+02,   -3.200000e+01,   -7.650898e+01
    1497,   -1.743402e+02,   -3.200000e+01,   -8.449678e+01
    1498,   -1.039130e+02,   -3.200000e+01,   -1.521965e+02
    1499,   -8.686404e+01,   -3.200000e+01,   -1.836139e+02
    1500,   -1.798407e+02,   -3.200000e+01,   -1.851685e+02
    1501,   -1.778796e+02,   -3.200000e+01,   -1.536348e+02
    1502,   -1.744260e+02,   -3.200000e+01,   -1.209699e+02
    1503,   -1.463455e+02,   -3.200000e+01,   -1.888011e+02
    1504,   -1.455735e+02,   -3.200000e+01,   -1.611071e+02
    1505,   -1.162877e+02,   -3.200000e+01,   -1.900174e+02
    1506,   -1.378445e+02,   -3.200000e+01,   -1.334891e+02
    1507,   -1.218073e+02,   -3.200000e+01,   -1.676800e+02
    1508,   -1.318990e+02,   -3.200000e+01,   -9.894454e+01
    1509,   -7.460712e+01,   -1.600000e+01,   -1.314812e+02
    1510,   -4.749014e+01,   -1.600000e+01,   -1.792809e+02
    1511,   -3.952587e+01,   -1.600000e+01,   -2.158615e+02
    1512,   -2.143675e+02,   -1.600000e+01,   -3.861692e+01
    1513,   -1.783295e+02,   -1.600000e+01,   -4.331821e+01
    1514,   -1.394960e+02,   -1.600000e+01,   -5.325721e+01
    1515,   -7.699760e+01,   -1.600000e+01,   -2.168664e+02
    1516,   -1.115463e+02,   -1.600000e+01,   -2.189851e+02
    1517,   -1.448988e+02,   -1.600000e+01,   -2.188785e+02
    1518,   -1.796782e+02,   -1.600000e+01,   -2.174912e+02
    1519,   -2.147166e+02,   -1.600000e+01,   -2.158933e+02
    1520,   -2.147047e+02,   -1.600000e+01,   -1.817097e+02
    1521,   -2.133939e+02,   -1.600000e+01,   -1.474125e+02
    1522,   -2.109599e+02,   -1.600000e+01,   -1.125271e+02
    1523,   -2.122614e+02,   -1.600000e+01,   -7.650898e+01
    1524,   -1.743402e+02,   -1.600000e+01,   -8.449678e+01
    1525,   -1.039130e+02,   -1.600000e+01,   -1.521965e+02
    1526,   -8.686404e+01,   -1.600000e+01,   -1.836139e+02
    1527,   -1.798407e+02,   -1.600000e+01,   -1.851685e+02
    1528,   -1.778796e+02,   -1.600000e+01,   -1.536348e+02
    1529,   -1.744260e+02,   -1.600000e+01,   -1.209699e+02
    1530,   -1.463455e+02,   -1.600000e+01,   -1.888011e+02
    1531,   -1.455735e+02,   -1.600000e+01,   -1.611071e+02
    1532,   -1.162877e+02,   -1.600000e+01,   -1.900174e+02
    1533,   -1.378445e+02,   -1.600000e+01,   -1.334891e+02
    1534,   -1.218073e+02,   -1.600000e+01,   -1.676800e+02
    1535,   -1.318990e+02,   -1.600000e+01,   -9.894454e+01
    1536,   -7.460712e+01,    0.000000e+00,   -1.314812e+02
    1537,   -4.749014e+01,    0.000000e+00,   -1.792809e+02
    1538,   -3.952587e+01,    0.000000e+00,   -2.158615e+02
    1539,   -2.143675e+02,    0.000000e+00,   -3.861692e+01
    1540,   -1.783295e+02,    0.000000e+00,   -4.331821e+01
    1541,   -1.394960e+02,    0.000000e+00,   -5.325721e+01
    1542,   -7.699760e+01,    0.000000e+00,   -2.168664e+02
    1543,   -1.115463e+02,    0.000000e+00,   -2.189851e+02
    1544,   -1.448988e+02,    0.000000e+00,   -2.188785e+02
    1545,   -1.796782e+02,    0.000000e+00,   -2.174912e+02
    1546,   -2.147166e+02,    0.000000e+00,   -2.158933e+02
    1547,   -2.147047e+02,    0.000000e+00,   -1.817097e+02
    1548,   -2.133939e+02,    0.000000e+00,   -1.474125e+02
    1549,   -2.109599e+02,    0.000000e+00,   -1.125271e+02
    1550,   -2.122614e+02,    0.000000e+00,   -7.650898e+01
    1551,   -1.743402e+02,    0.000000e+00,   -8.449678e+01
    1552,   -1.039130e+02,    0.000000e+00,   -1.521965e+02
    1553,   -8.686404e+01,    0.000000e+00,   -1.836139e+02
    1554,   -1.798407e+02,    0.000000e+00,   -1.851685e+02
    1555,   -1.778796e+02,    0.000000e+00,   -1.536348e+02
    1556,   -1.744260e+02,    0.000000e+00,   -1.209699e+02
    1557,   -1.463455e+02,    0.000000e+00,   -1.888011e+02
    1558,   -1.455735e+02,    0.000000e+00,   -1.611071e+02
    1559,   -1.162877e+02,    0.000000e+00,   -1.900174e+02
    1560,   -1.378445e+02,    0.000000e+00,   -1.334891e+02
    1561,   -1.218073e+02,    0.000000e+00,   -1.676800e+02
    1562,   -1.318990e+02,    0.000000e+00,   -9.894454e+01
    1563,   -2.500000e+02,   -2.400000e+02,   -2.500000e+02
    1564,   -3.571429e+01,   -2.400000e+02,   -2.500000e+02
    1565,   -7.142857e+01,   -2.400000e+02,   -2.500000e+02
    1566,   -1.071429e+02,   -2.400000e+02,   -2.500000e+02
    1567,   -1.428571e+02,   -2.400000e+02,   -2.500000e+02
    1568,   -1.785714e+02,   -2.400000e+02,   -2.500000e+02
    1569,   -2.142857e+02,   -2.400000e+02,   -2.500000e+02
    1570,   -2.500000e+02,   -2.254545e+02,   -2.500000e+02
    1571,   -2.500000e+02,   -2.109091e+02,   -2.500000e+02
    1572,   -2.500000e+02,   -1.963636e+02,   -2.500000e+02
    1573,   -2.500000e+02,   -1.818182e+02,   -2.500000e+02
    1574,   -2.500000e+02,   -1.672727e+02,   -2.500000e+02
    1575,   -2.500000e+02,   -1.527273e+02,   -2.500000e+02
    1576,   -2.500000e+02,   -1.381818e+02,   -2.500000e+02
    1577,   -2.500000e+02,   -1.236364e+02,   -2.500000e+02
    1578,   -2.500000e+02,   -1.090909e+02,   -2.500000e+02
    1579,   -2.500000e+02,   -9.454545e+01,   -2.500000e+02
    1580,   -3.571429e+01,   -9.454545e+01,   -2.500000e+02
    1581,   -3.571429e+01,   -1.090909e+02,   -2.500000e+02
    1582,   -3.571429e+01,   -1.236364e+02,   -2.500000e+02
    1583,   -3.571429e+01,   -1.381818e+02,   -2.500000e+02
    1584,   -3.571429e+01,   -1.527273e+02,   -2.500000e+02
    1585,   -3.571429e+01,   -1.672727e+02,   -2.500000e+02
    1586,   -3.571429e+01,   -1.818182e+02,   -2.500000e+02
    1587,   -3.571429e+01,   -1.963636e+02,   -2.500000e+02
    1588,   -3.571429e+01,   -2.109091e+02,   -2.500000e+02
    1589,   -3.571429e+01,   -2.254545e+02,   -2.500000e+02
    1590,   -7.142857e+01,   -9.454545e+01,   -2.500000e+02
    1591,   -7.142857e+01,   -1.090909e+02,   -2.500000e+02
    1592,   -7.142857e+01,   -1.236364e+02,   -2.500000e+02
    1593,   -7.142857e+01,   -1.381818e+02,   -2.500000e+02
    1594,   -7.142857e+01,   -1.527273e+02,   -2.500000e+02
    1595,   -7.142857e+01,   -1.672727e+02,   -2.500000e+02
    1596,   -7.142857e+01,   -1.818182e+02,   -2.500000e+02
    1597,   -7.142857e+01,   -1.963636e+02,   -2.500000e+02
    1598,   -7.142857e+01,   -2.109091e+02,   -2.500000e+02
    1599,   -7.142857e+01,   -2.254545e+02,   -2.500000e+02
    1600,   -1.071429e+02,   -9.454545e+01,   -2.500000e+02
    1601,   -1.071429e+02,   -1.090909e+02,   -2.500000e+02
    1602,   -1.071429e+02,   -1.236364e+02,   -2.500000e+02
    1603,   -1.071429e+02,   -1.381818e+02,   -2.500000e+02
    1604,   -1.071429e+02,   -1.527273e+02,   -2.500000e+02
    1605,   -1.071429e+02,   -1.672727e+02,   -2.500000e+02
    1606,   -1.071429e+02,   -1.818182e+02,   -2.500000e+02
    1607,   -1.071429e+02,   -1.963636e+02,   -2.500000e+02
    1608,   -1.071429e+02,   -2.109091e+02,   -2.500000e+02
    1609,   -1.071429e+02,   -2.254545e+02,   -2.500000e+02
    1610,   -1.428571e+02,   -9.454545e+01,   -2.500000e+02
    1611,   -1.428571e+02,   -1.090909e+02,   -2.500000e+02
    1612,   -1.428571e+02,   -1.236364e+02,   -2.500000e+02
    1613,   -1.428571e+02,   -1.381818e+02,   -2.500000e+02
    1614,   -1.428571e+02,   -1.527273e+02,   -2.500000e+02
    1615,   -1.428571e+02,   -1.672727e+02,   -2.500000e+02
    1616,   -1.428571e+02,   -1.818182e+02,   -2.500000e+02
    1617,   -1.428571e+02,   -1.963636e+02,   -2.500000e+02
    1618,   -1.428571e+02,   -2.109091e+02,   -2.500000e+02
    1619,   -1.428571e+02,   -2.254545e+02,   -2.500000e+02
    1620,   -1.785714e+02,   -9.454545e+01,   -2.500000e+02
    1621,   -1.785714e+02,   -1.090909e+02,   -2.500000e+02
    1622,   -1.785714e+02,   -1.236364e+02,   -2.500000e+02
    1623,   -1.785714e+02,   -1.381818e+02,   -2.500000e+02
    1624,   -1.785714e+02,   -1.527273e+02,   -2.500000e+02
    1625,   -1.785714e+02,   -1.672727e+02,   -2.500000e+02
    1626,   -1.785714e+02,   -1.818182e+02,   -2.500000e+02
    1627,   -1.785714e+02,   -1.963636e+02,   -2.500000e+02
    1628,   -1.785714e+02,   -2.109091e+02,   -2.500000e+02
    1629,   -1.785714e+02,   -2.254545e+02,   -2.500000e+02
    1630,   -2.142857e+02,   -9.454545e+01,   -2.500000e+02
    1631,   -2.142857e+02,   -1.090909e+02,   -2.500000e+02
    1632,   -2.142857e+02,   -1.236364e+02,   -2.500000e+02
    1633,   -2.142857e+02,   -1.381818e+02,   -2.500000e+02
    1634,   -2.142857e+02,   -1.527273e+02,   -2.500000e+02
    1635,   -2.142857e+02,   -1.672727e+02,   -2.500000e+02
    1636,   -2.142857e+02,   -1.818182e+02,   -2.500000e+02
    1637,   -2.142857e+02,   -1.963636e+02,   -2.500000e+02
    1638,   -2.142857e+02,   -2.109091e+02,   -2.500000e+02
    1639,   -2.142857e+02,   -2.254545e+02,   -2.500000e+02
    1640,   -2.500000e+02,   -2.400000e+02,    0.000000e+00
    1641,   -2.500000e+02,   -9.454545e+01,    0.000000e+00
    1642,   -2.500000e+02,   -1.090909e+02,    0.000000e+00
    1643,   -2.500000e+02,   -1.236364e+02,    0.000000e+00
    1644,   -2.500000e+02,   -1.381818e+02,    0.000000e+00
    1645,   -2.500000e+02,   -1.527273e+02,    0.000000e+00
    1646,   -2.500000e+02,   -1.672727e+02,    0.000000e+00
    1647,   -2.500000e+02,   -1.818182e+02,    0.000000e+00
    1648,   -2.500000e+02,   -1.963636e+02,    0.000000e+00
    1649,   -2.500000e+02,   -2.109091e+02,    0.000000e+00
    1650,   -2.500000e+02,   -2.254545e+02,    0.000000e+00
    1651,   -1.200000e+02,   -2.400000e+02,    0.000000e+00
    1652,   -2.175000e+02,   -2.400000e+02,    0.000000e+00
    1653,   -1.850000e+02,   -2.400000e+02,    0.000000e+00
    1654,   -1.525000e+02,   -2.400000e+02,    0.000000e+00
    1655,   -1.200000e+02,   -2.254545e+02,   -4.007935e-15
    1656,   -1.200000e+02,   -2.109091e+02,   -3.117283e-15
    1657,   -1.200000e+02,   -1.963636e+02,   -2.226631e-15
    1658,   -1.200000e+02,   -1.818182e+02,   -1.335978e-15
    1659,   -1.200000e+02,   -1.672727e+02,   -4.453261e-16
    1660,   -1.200000e+02,   -1.527273e+02,    4.453261e-16
    1661,   -1.200000e+02,   -1.381818e+02,    1.335978e-15
    1662,   -1.200000e+02,   -1.236364e+02,    2.226631e-15
    1663,   -1.200000e+02,   -1.090909e+02,    3.117283e-15
    1664,   -1.200000e+02,   -9.454545e+01,    4.007935e-15
    1665,   -2.175000e+02,   -9.454545e+01,    0.000000e+00
    1666,   -2.175000e+02,   -1.090909e+02,    0.000000e+00
    1667,   -2.175000e+02,   -1.236364e+02,    0.000000e+00
    1668,   -2.175000e+02,   -1.381818e+02,    0.000000e+00
    1669,   -2.175000e+02,   -1.527273e+02,    0.000000e+00
    1670,   -2.175000e+02,   -1.672727e+02,    0.000000e+00
    1671,   -2.175000e+02,   -1.818182e+02,    0.000000e+00
    1672,   -2.175000e+02,   -1.963636e+02,    0.000000e+00
    1673,   -2.175000e+02,   -2.109091e+02,    0.000000e+00
    1674,   -2.175000e+02,   -2.254545e+02,    0.000000e+00
    1675,   -1.850000e+02,   -9.454545e+01,    0.000000e+00
    1676,   -1.850000e+02,   -1.090909e+02,    0.000000e+00
    1677,   -1.850000e+02,   -1.236364e+02,    0.000000e+00
    1678,   -1.850000e+02,   -1.381818e+02,    0.000000e+00
    1679,   -1.850000e+02,   -1.527273e+02,    0.000000e+00
    1680,   -1.850000e+02,   -1.672727e+02,    0.000000e+00
    1681,   -1.850000e+02,   -1.818182e+02,    0.000000e+00
    1682,   -1.850000e+02,   -1.963636e+02,    0.000000e+00
    1683,   -1.850000e+02,   -2.109091e+02,    0.000000e+00
    1684,   -1.850000e+02,   -2.254545e+02,    0.000000e+00
    1685,   -1.525000e+02,   -9.454545e+01,    0.000000e+00
    1686,   -1.525000e+02,   -1.090909e+02,    0.000000e+00
    1687,   -1.525000e+02,   -1.236364e+02,    0.000000e+00
    1688,   -1.525000e+02,   -1.381818e+02,    0.000000e+00
    1689,   -1.525000e+02,   -1.527273e+02,    0.000000e+00
    1690,   -1.525000e+02,   -1.672727e+02,    0.000000e+00
    1691,   -1.525000e+02,   -1.818182e+02,    0.000000e+00
    1692,   -1.525000e+02,   -1.963636e+02,    0.000000e+00
    1693,   -1.525000e+02,   -2.109091e+02,    0.000000e+00
    1694,   -1.525000e+02,   -2.254545e+02,    0.000000e+00
    1695,   -8.485281e+01,   -2.400000e+02,   -8.485281e+01
    1696,   -8.485281e+01,   -2.254545e+02,   -8.485281e+01
    1697,   -8.485281e+01,   -2.109091e+02,   -8.485281e+01
    1698,   -8.485281e+01,   -1.963636e+02,   -8.485281e+01
    1699,   -8.485281e+01,   -1.818182e+02,   -8.485281e+01
    1700,   -8.485281e+01,   -1.672727e+02,   -8.485281e+01
    1701,   -8.485281e+01,   -1.527273e+02,   -8.485281e+01
    1702,   -8.485281e+01,   -1.381818e+02,   -8.485281e+01
    1703,   -8.485281e+01,   -1.236364e+02,   -8.485281e+01
    1704,   -8.485281e+01,   -1.090909e+02,   -8.485281e+01
    1705,   -8.485281e+01,   -9.454545e+01,   -8.485281e+01
    1706,   -2.500000e+02,   -2.400000e+02,   -3.571429e+01
    1707,   -2.500000e+02,   -2.400000e+02,   -7.142857e+01
    1708,   -2.500000e+02,   -2.400000e+02,   -1.071429e+02
    1709,   -2.500000e+02,   -2.400000e+02,   -1.428571e+02
    1710,   -2.500000e+02,   -2.400000e+02,   -1.785714e+02
    1711,   -2.500000e+02,   -2.400000e+02,   -2.142857e+02
    1712,   -2.500000e+02,   -2.254545e+02,   -3.571429e+01
    1713,   -2.500000e+02,   -2.109091e+02,   -3.571429e+01
    1714,   -2.500000e+02,   -1.963636e+02,   -3.571429e+01
    1715,   -2.500000e+02,   -1.818182e+02,   -3.571429e+01
    1716,   -2.500000e+02,   -1.672727e+02,   -3.571429e+01
    1717,   -2.500000e+02,   -1.527273e+02,   -3.571429e+01
    1718,   -2.500000e+02,   -1.381818e+02,   -3.571429e+01
    1719,   -2.500000e+02,   -1.236364e+02,   -3.571429e+01
    1720,   -2.500000e+02,   -1.090909e+02,   -3.571429e+01
    1721,   -2.500000e+02,   -9.454545e+01,   -3.571429e+01
    1722,   -2.500000e+02,   -2.254545e+02,   -7.142857e+01
    1723,   -2.500000e+02,   -2.109091e+02,   -7.142857e+01
    1724,   -2.500000e+02,   -1.963636e+02,   -7.142857e+01
    1725,   -2.500000e+02,   -1.818182e+02,   -7.142857e+01
    1726,   -2.500000e+02,   -1.672727e+02,   -7.142857e+01
    1727,   -2.500000e+02,   -1.527273e+02,   -7.142857e+01
    1728,   -2.500000e+02,   -1.381818e+02,   -7.142857e+01
    1729,   -2.500000e+02,   -1.236364e+02,   -7.142857e+01
    1730,   -2.500000e+02,   -1.090909e+02,   -7.142857e+01
    1731,   -2.500000e+02,   -9.454545e+01,   -7.142857e+01
    1732,   -2.500000e+02,   -2.254545e+02,   -1.071429e+02
    1733,   -2.500000e+02,   -2.109091e+02,   -1.071429e+02
    1734,   -2.500000e+02,   -1.963636e+02,   -1.071429e+02
    1735,   -2.500000e+02,   -1.818182e+02,   -1.071429e+02
    1736,   -2.500000e+02,   -1.672727e+02,   -1.071429e+02
    1737,   -2.500000e+02,   -1.527273e+02,   -1.071429e+02
    1738,   -2.500000e+02,   -1.381818e+02,   -1.071429e+02
    1739,   -2.500000e+02,   -1.236364e+02,   -1.071429e+02
    1740,   -2.500000e+02,   -1.090909e+02,   -1.071429e+02
    1741,   -2.500000e+02,   -9.454545e+01,   -1.071429e+02
    1742,   -2.500000e+02,   -2.254545e+02,   -1.428571e+02
    1743,   -2.500000e+02,   -2.109091e+02,   -1.428571e+02
    1744,   -2.500000e+02,   -1.963636e+02,   -1.428571e+02
    1745,   -2.500000e+02,   -1.818182e+02,   -1.428571e+02
    1746,   -2.500000e+02,   -1.672727e+02,   -1.428571e+02
    1747,   -2.500000e+02,   -1.527273e+02,   -1.428571e+02
    1748,   -2.500000e+02,   -1.381818e+02,   -1.428571e+02
    1749,   -2.500000e+02,   -1.236364e+02,   -1.428571e+02
    1750,   -2.500000e+02,   -1.090909e+02,   -1.428571e+02
    1751,   -2.500000e+02,   -9.454545e+01,   -1.428571e+02
    1752,   -2.500000e+02,   -2.254545e+02,   -1.785714e+02
    1753,   -2.500000e+02,   -2.109091e+02,   -1.785714e+02
    1754,   -2.500000e+02,   -1.963636e+02,   -1.785714e+02
    1755,   -2.500000e+02,   -1.818182e+02,   -1.785714e+02
    1756,   -2.500000e+02,   -1.672727e+02,   -1.785714e+02
    1757,   -2.500000e+02,   -1.527273e+02,   -1.785714e+02
    1758,   -2.500000e+02,   -1.381818e+02,   -1.785714e+02
    1759,   -2.500000e+02,   -1.236364e+02,   -1.785714e+02
    1760,   -2.500000e+02,   -1.090909e+02,   -1.785714e+02
    1761,   -2.500000e+02,   -9.454545e+01,   -1.785714e+02
    1762,   -2.500000e+02,   -2.254545e+02,   -2.142857e+02
    1763,   -2.500000e+02,   -2.109091e+02,   -2.142857e+02
    1764,   -2.500000e+02,   -1.963636e+02,   -2.142857e+02
    1765,   -2.500000e+02,   -1.818182e+02,   -2.142857e+02
    1766,   -2.500000e+02,   -1.672727e+02,   -2.142857e+02
    1767,   -2.500000e+02,   -1.527273e+02,   -2.142857e+02
    1768,   -2.500000e+02,   -1.381818e+02,   -2.142857e+02
    1769,   -2.500000e+02,   -1.236364e+02,   -2.142857e+02
    1770,   -2.500000e+02,   -1.090909e+02,   -2.142857e+02
    1771,   -2.500000e+02,   -9.454545e+01,   -2.142857e+02
    1772,   -7.460712e+01,   -9.454545e+01,   -1.314812e+02
    1773,   -4.749014e+01,   -9.454545e+01,   -1.792809e+02
    1774,   -3.952587e+01,   -9.454545e+01,   -2.158615e+02
    1775,   -2.143675e+02,   -9.454545e+01,   -3.861692e+01
    1776,   -1.783295e+02,   -9.454545e+01,   -4.331821e+01
    1777,   -1.394960e+02,   -9.454545e+01,   -5.325721e+01
    1778,   -7.699760e+01,   -9.454545e+01,   -2.168664e+02
    1779,   -1.115463e+02,   -9.454545e+01,   -2.189851e+02
    1780,   -1.448988e+02,   -9.454545e+01,   -2.188785e+02
    1781,   -1.796782e+02,   -9.454545e+01,   -2.174912e+02
    1782,   -2.147166e+02,   -9.454545e+01,   -2.158933e+02
    1783,   -2.147047e+02,   -9.454545e+01,   -1.817097e+02
    1784,   -2.133939e+02,   -9.454545e+01,   -1.474125e+02
    1785,   -2.109599e+02,   -9.454545e+01,   -1.125271e+02
    1786,   -2.122614e+02,   -9.454545e+01,   -7.650898e+01
    1787,   -1.743402e+02,   -9.454545e+01,   -8.449678e+01
    1788,   -8.686404e+01,   -9.454545e+01,   -1.836139e+02
    1789,   -1.039130e+02,   -9.454545e+01,   -1.521965e+02
    1790,   -1.798407e+02,   -9.454545e+01,   -1.851685e+02
    1791,   -1.778796e+02,   -9.454545e+01,   -1.536348e+02
    1792,   -1.744260e+02,   -9.454545e+01,   -1.209699e+02
    1793,   -1.463455e+02,   -9.454545e+01,   -1.888011e+02
    1794,   -1.455735e+02,   -9.454545e+01,   -1.611071e+02
    1795,   -1.162877e+02,   -9.454545e+01,   -1.900174e+02
    1796,   -1.378445e+02,   -9.454545e+01,   -1.334891e+02
    1797,   -1.218073e+02,   -9.454545e+01,   -1.676800e+02
    1798,   -1.318990e+02,   -9.454545e+01,   -9.894454e+01
    1799,   -7.460712e+01,   -1.090909e+02,   -1.314812e+02
    1800,   -4.749014e+01,   -1.090909e+02,   -1.792809e+02
    1801,   -3.952587e+01,   -1.090909e+02,   -2.158615e+02
    1802,   -2.143675e+02,   -1.090909e+02,   -3.861692e+01
    1803,   -1.783295e+02,   -1.090909e+02,   -4.331821e+01
    1804,   -1.394960e+02,   -1.090909e+02,   -5.325721e+01
    1805,   -7.699760e+01,   -1.090909e+02,   -2.168664e+02
    1806,   -1.115463e+02,   -1.090909e+02,   -2.189851e+02
    1807,   -1.448988e+02,   -1.090909e+02,   -2.188785e+02
    1808,   -1.796782e+02,   -1.090909e+02,   -2.174912e+02
    1809,   -2.147166e+02,   -1.090909e+02,   -2.158933e+02
    1810,   -2.147047e+02,   -1.090909e+02,   -1.817097e+02
    1811,   -2.133939e+02,   -1.090909e+02,   -1.474125e+02
    1812,   -2.109599e+02,   -1.090909e+02,   -1.125271e+02
    1813,   -2.122614e+02,   -1.090909e+02,   -7.650898e+01
    1814,   -1.743402e+02,   -1.090909e+02,   -8.449678e+01
    1815,   -8.686404e+01,   -1.090909e+02,   -1.836139e+02
    1816,   -1.039130e+02,   -1.090909e+02,   -1.521965e+02
    1817,   -1.798407e+02,   -1.090909e+02,   -1.851685e+02
    1818,   -1.778796e+02,   -1.090909e+02,   -1.536348e+02
    1819,   -1.744260e+02,   -1.090909e+02,   -1.209699e+02
    1820,   -1.463455e+02,   -1.090909e+02,   -1.888011e+02
    1821,   -1.455735e+02,   -1.090909e+02,   -1.611071e+02
    1822,   -1.162877e+02,   -1.090909e+02,   -1.900174e+02
    1823,   -1.378445e+02,   -1.090909e+02,   -1.334891e+02
    1824,   -1.218073e+02,   -1.090909e+02,   -1.676800e+02
    1825,   -1.318990e+02,   -1.090909e+02,   -9.894454e+01
    1826,   -7.460712e+01,   -1.236364e+02,   -1.314812e+02
    1827,   -4.749014e+01,   -1.236364e+02,   -1.792809e+02
    1828,   -3.952587e+01,   -1.236364e+02,   -2.158615e+02
    1829,   -2.143675e+02,   -1.236364e+02,   -3.861692e+01
    1830,   -1.783295e+02,   -1.236364e+02,   -4.331821e+01
    1831,   -1.394960e+02,   -1.236364e+02,   -5.325721e+01
    1832,   -7.699760e+01,   -1.236364e+02,   -2.168664e+02
    1833,   -1.115463e+02,   -1.236364e+02,   -2.189851e+02
    1834,   -1.448988e+02,   -1.236364e+02,   -2.188785e+02
    1835,   -1.796782e+02,   -1.236364e+02,   -2.174912e+02
    1836,   -2.147166e+02,   -1.236364e+02,   -2.158933e+02
    1837,   -2.147047e+02,   -1.236364e+02,   -1.817097e+02
    1838,   -2.133939e+02,   -1.236364e+02,   -1.474125e+02
    1839,   -2.109599e+02,   -1.236364e+02,   -1.125271e+02
    1840,   -2.122614e+02,   -1.236364e+02,   -7.650898e+01
    1841,   -1.743402e+02,   -1.236364e+02,   -8.449678e+01
    1842,   -8.686404e+01,   -1.236364e+02,   -1.836139e+02
    1843,   -1.039130e+02,   -1.236364e+02,   -1.521965e+02
    1844,   -1.798407e+02,   -1.236364e+02,   -1.851685e+02
    1845,   -1.778796e+02,   -1.236364e+02,   -1.536348e+02
    1846,   -1.744260e+02,   -1.236364e+02,   -1.209699e+02
    1847,   -1.463455e+02,   -1.236364e+02,   -1.888011e+02
    1848,   -1.455735e+02,   -1.236364e+02,   -1.611071e+02
    1849,   -1.162877e+02,   -1.236364e+02,   -1.900174e+02
    1850,   -1.378445e+02,   -1.236364e+02,   -1.334891e+02
    1851,   -1.218073e+02,   -1.236364e+02,   -1.676800e+02
    1852,   -1.318990e+02,   -1.236364e+02,   -9.894454e+01
    1853,   -7.460712e+01,   -1.381818e+02,   -1.314812e+02
    1854,   -4.749014e+01,   -1.381818e+02,   -1.792809e+02
    1855,   -3.952587e+01,   -1.381818e+02,   -2.158615e+02
    1856,   -2.143675e+02,   -1.381818e+02,   -3.861692e+01
    1857,   -1.783295e+02,   -1.381818e+02,   -4.331821e+01
    1858,   -1.394960e+02,   -1.381818e+02,   -5.325721e+01
    1859,   -7.699760e+01,   -1.381818e+02,   -2.168664e+02
    1860,   -1.115463e+02,   -1.381818e+02,   -2.189851e+02
    1861,   -1.448988e+02,   -1.381818e+02,   -2.188785e+02
    1862,   -1.796782e+02,   -1.381818e+02,   -2.174912e+02
    1863,   -2.147166e+02,   -1.381818e+02,   -2.158933e+02
    1864,   -2.147047e+02,   -1.381818e+02,   -1.817097e+02
    1865,   -2.133939e+02,   -1.381818e+02,   -1.474125e+02
    1866,   -2.109599e+02,   -1.381818e+02,   -1.125271e+02
    1867,   -2.122614e+02,   -1.381818e+02,   -7.650898e+01
    1868,   -1.743402e+02,   -1.381818e+02,   -8.449678e+01
    1869,   -8.686404e+01,   -1.381818e+02,   -1.836139e+02
    1870,   -1.039130e+02,   -1.381818e+02,   -1.521965e+02
    1871,   -1.798407e+02,   -1.381818e+02,   -1.851685e+02
    1872,   -1.778796e+02,   -1.381818e+02,   -1.536348e+02
    1873,   -1.744260e+02,   -1.381818e+02,   -1.209699e+02
    1874,   -1.463455e+02,   -1.381818e+02,   -1.888011e+02
    1875,   -1.455735e+02,   -1.381818e+02,   -1.611071e+02
    1876,   -1.162877e+02,   -1.381818e+02,   -1.900174e+02
    1877,   -1.378445e+02,   -1.381818e+02,   -1.334891e+02
    1878,   -1.218073e+02,   -1.381818e+02,   -1.676800e+02
    1879,   -1.318990e+02,   -1.381818e+02,   -9.894454e+01
    1880,   -7.460712e+01,   -1.527273e+02,   -1.314812e+02
    1881,   -4.749014e+01,   -1.527273e+02,   -1.792809e+02
    1882,   -3.952587e+01,   -1.527273e+02,   -2.158615e+02
    1883,   -2.143675e+02,   -1.527273e+02,   -3.861692e+01
    1884,   -1.783295e+02,   -1.527273e+02,   -4.331821e+01
    1885,   -1.394960e+02,   -1.527273e+02,   -5.325721e+01
    1886,   -7.699760e+01,   -1.527273e+02,   -2.168664e+02
    1887,   -1.115463e+02,   -1.527273e+02,   -2.189851e+02
    1888,   -1.448988e+02,   -1.527273e+02,   -2.188785e+02
    1889,   -1.796782e+02,   -1.527273e+02,   -2.174912e+02
    1890,   -2.147166e+02,   -1.527273e+02,   -2.158933e+02
    1891,   -2.147047e+02,   -1.527273e+02,   -1.817097e+02
    1892,   -2.133939e+02,   -1.527273e+02,   -1.474125e+02
    1893,   -2.109599e+02,   -1.527273e+02,   -1.125271e+02
    1894,   -2.122614e+02,   -1.527273e+02,   -7.650898e+01
    1895,   -1.743402e+02,   -1.527273e+02,   -8.449678e+01
    1896,   -8.686404e+01,   -1.527273e+02,   -1.836139e+02
    1897,   -1.039130e+02,   -1.527273e+02,   -1.521965e+02
    1898,   -1.798407e+02,   -1.527273e+02,   -1.851685e+02
    1899,   -1.778796e+02,   -1.527273e+02,   -1.536348e+02
    1900,   -1.744260e+02,   -1.527273e+02,   -1.209699e+02
    1901,   -1.463455e+02,   -1.527273e+02,   -1.888011e+02
    1902,   -1.455735e+02,   -1.527273e+02,   -1.611071e+02
    1903,   -1.162877e+02,   -1.527273e+02,   -1.900174e+02
    1904,   -1.378445e+02,   -1.527273e+02,   -1.334891e+02
    1905,   -1.218073e+02,   -1.527273e+02,   -1.676800e+02
    1906,   -1.318990e+02,   -1.527273e+02,   -9.894454e+01
    1907,   -7.460712e+01,   -1.672727e+02,   -1.314812e+02
    1908,   -4.749014e+01,   -1.672727e+02,   -1.792809e+02
    1909,   -3.952587e+01,   -1.672727e+02,   -2.158615e+02
    1910,   -2.143675e+02,   -1.672727e+02,   -3.861692e+01
    1911,   -1.783295e+02,   -1.672727e+02,   -4.331821e+01
    1912,   -1.394960e+02,   -1.672727e+02,   -5.325721e+01
    1913,   -7.699760e+01,   -1.672727e+02,   -2.168664e+02
    1914,   -1.115463e+02,   -1.672727e+02,   -2.189851e+02
    1915,   -1.448988e+02,   -1.672727e+02,   -2.188785e+02
    1916,   -1.796782e+02,   -1.672727e+02,   -2.174912e+02
    1917,   -2.147166e+02,   -1.672727e+02,   -2.158933e+02
    1918,   -2.147047e+02,   -1.672727e+02,   -1.817097e+02
    1919,   -2.133939e+02,   -1.672727e+02,   -1.474125e+02
    1920,   -2.109599e+02,   -1.672727e+02,   -1.125271e+02
    1921,   -2.122614e+02,   -1.672727e+02,   -7.650898e+01
    1922,   -1.743402e+02,   -1.672727e+02,   -8.449678e+01
    1923,   -8.686404e+01,   -1.672727e+02,   -1.836139e+02
    1924,   -1.039130e+02,   -1.672727e+02,   -1.521965e+02
    1925,   -1.798407e+02,   -1.672727e+02,   -1.851685e+02
    1926,   -1.778796e+02,   -1.672727e+02,   -1.536348e+02
    1927,   -1.744260e+02,   -1.672727e+02,   -1.209699e+02
    1928,   -1.463455e+02,   -1.672727e+02,   -1.888011e+02
    1929,   -1.455735e+02,   -1.672727e+02,   -1.611071e+02
    1930,   -1.162877e+02,   -1.672727e+02,   -1.900174e+02
    1931,   -1.378445e+02,   -1.672727e+02,   -1.334891e+02
    1932,   -1.218073e+02,   -1.672727e+02,   -1.676800e+02
    1933,   -1.318990e+02,   -1.672727e+02,   -9.894454e+01
    1934,   -7.460712e+01,   -1.818182e+02,   -1.314812e+02
    1935,   -4.749014e+01,   -1.818182e+02,   -1.792809e+02
    1936,   -3.952587e+01,   -1.818182e+02,   -2.158615e+02
    1937,   -2.143675e+02,   -1.818182e+02,   -3.861692e+01
    1938,   -1.783295e+02,   -1.818182e+02,   -4.331821e+01
    1939,   -1.394960e+02,   -1.818182e+02,   -5.325721e+01
    1940,   -7.699760e+01,   -1.818182e+02,   -2.168664e+02
    1941,   -1.115463e+02,   -1.818182e+02,   -2.189851e+02
    1942,   -1.448988e+02,   -1.818182e+02,   -2.188785e+02
    1943,   -1.796782e+02,   -1.818182e+02,   -2.174912e+02
    1944,   -2.147166e+02,   -1.818182e+02,   -2.158933e+02
    1945,   -2.147047e+02,   -1.818182e+02,   -1.817097e+02
    1946,   -2.133939e+02,   -1.818182e+02,   -1.474125e+02
    1947,   -2.109599e+02,   -1.818182e+02,   -1.125271e+02
    1948,   -2.122614e+02,   -1.818182e+02,   -7.650898e+01
    1949,   -1.743402e+02,   -1.818182e+02,   -8.449678e+01
    1950,   -8.686404e+01,   -1.818182e+02,   -1.836139e+02
    1951,   -1.039130e+02,   -1.818182e+02,   -1.521965e+02
    1952,   -1.798407e+02,   -1.818182e+02,   -1.851685e+02
    1953,   -1.778796e+02,   -1.818182e+02,   -1.536348e+02
    1954,   -1.744260e+02,   -1.818182e+02,   -1.209699e+02
    1955,   -1.463455e+02,   -1.818182e+02,   -1.888011e+02
    1956,   -1.455735e+02,   -1.818182e+02,   -1.611071e+02
    1957,   -1.162877e+02,   -1.818182e+02,   -1.900174e+02
    1958,   -1.378445e+02,   -1.818182e+02,   -1.334891e+02
    1959,   -1.218073e+02,   -1.818182e+02,   -1.676800e+02
    1960,   -1.318990e+02,   -1.818182e+02,   -9.894454e+01
    1961,   -7.460712e+01,   -1.963636e+02,   -1.314812e+02
    1962,   -4.749014e+01,   -1.963636e+02,   -1.792809e+02
    1963,   -3.952587e+01,   -1.963636e+02,   -2.158615e+02
    1964,   -2.143675e+02,   -1.963636e+02,   -3.861692e+01
    1965,   -1.783295e+02,   -1.963636e+02,   -4.331821e+01
    1966,   -1.394960e+02,   -1.963636e+02,   -5.325721e+01
    1967,   -7.699760e+01,   -1.963636e+02,   -2.168664e+02
    1968,   -1.115463e+02,   -1.963636e+02,   -2.189851e+02
    1969,   -1.448988e+02,   -1.963636e+02,   -2.188785e+02
    1970,   -1.796782e+02,   -1.963636e+02,   -2.174912e+02
    1971,   -2.147166e+02,   -1.963636e+02,   -2.158933e+02
    1972,   -2.147047e+02,   -1.963636e+02,   -1.817097e+02
    1973,   -2.133939e+02,   -1.963636e+02,   -1.474125e+02
    1974,   -2.109599e+02,   -1.963636e+02,   -1.125271e+02
    1975,   -2.122614e+02,   -1.963636e+02,   -7.650898e+01
    1976,   -1.743402e+02,   -1.963636e+02,   -8.449678e+01
    1977,   -8.686404e+01,   -1.963636e+02,   -1.836139e+02
    1978,   -1.039130e+02,   -1.963636e+02,   -1.521965e+02
    1979,   -1.798407e+02,   -1.963636e+02,   -1.851685e+02
    1980,   -1.778796e+02,   -1.963636e+02,   -1.536348e+02
    1981,   -1.744260e+02,   -1.963636e+02,   -1.209699e+02
    1982,   -1.463455e+02,   -1.963636e+02,   -1.888011e+02
    1983,   -1.455735e+02,   -1.963636e+02,   -1.611071e+02
    1984,   -1.162877e+02,   -1.963636e+02,   -1.900174e+02
    1985,   -1.378445e+02,   -1.963636e+02,   -1.334891e+02
    1986,   -1.218073e+02,   -1.963636e+02,   -1.676800e+02
    1987,   -1.318990e+02,   -1.963636e+02,   -9.894454e+01
    1988,   -7.460712e+01,   -2.109091e+02,   -1.314812e+02
    1989,   -4.749014e+01,   -2.109091e+02,   -1.792809e+02
    1990,   -3.952587e+01,   -2.109091e+02,   -2.158615e+02
    1991,   -2.143675e+02,   -2.109091e+02,   -3.861692e+01
    1992,   -1.783295e+02,   -2.109091e+02,   -4.331821e+01
    1993,   -1.394960e+02,   -2.109091e+02,   -5.325721e+01
    1994,   -7.699760e+01,   -2.109091e+02,   -2.168664e+02
    1995,   -1.115463e+02,   -2.109091e+02,   -2.189851e+02
    1996,   -1.448988e+02,   -2.109091e+02,   -2.188785e+02
    1997,   -1.796782e+02,   -2.109091e+02,   -2.174912e+02
    1998,   -2.147166e+02,   -2.109091e+02,   -2.158933e+02
    1999,   -2.147047e+02,   -2.109091e+02,   -1.817097e+02
    2000,   -2.133939e+02,   -2.109091e+02,   -1.474125e+02
    2001,   -2.109599e+02,   -2.109091e+02,   -1.125271e+02
    2002,   -2.122614e+02,   -2.109091e+02,   -7.650898e+01
    2003,   -1.743402e+02,   -2.109091e+02,   -8.449678e+01
    2004,   -8.686404e+01,   -2.109091e+02,   -1.836139e+02
    2005,   -1.039130e+02,   -2.109091e+02,   -1.521965e+02
    2006,   -1.798407e+02,   -2.109091e+02,   -1.851685e+02
    2007,   -1.778796e+02,   -2.109091e+02,   -1.536348e+02
    2008,   -1.744260e+02,   -2.109091e+02,   -1.209699e+02
    2009,   -1.463455e+02,   -2.109091e+02,   -1.888011e+02
    2010,   -1.455735e+02,   -2.109091e+02,   -1.611071e+02
    2011,   -1.162877e+02,   -2.109091e+02,   -1.900174e+02
    2012,   -1.378445e+02,   -2.109091e+02,   -1.334891e+02
    2013,   -1.218073e+02,   -2.109091e+02,   -1.676800e+02
    2014,   -1.318990e+02,   -2.109091e+02,   -9.894454e+01
    2015,   -7.460712e+01,   -2.254545e+02,   -1.314812e+02
    2016,   -4.749014e+01,   -2.254545e+02,   -1.792809e+02
    2017,   -3.952587e+01,   -2.254545e+02,   -2.158615e+02
    2018,   -2.143675e+02,   -2.254545e+02,   -3.861692e+01
    2019,   -1.783295e+02,   -2.254545e+02,   -4.331821e+01
    2020,   -1.394960e+02,   -2.254545e+02,   -5.325721e+01
    2021,   -7.699760e+01,   -2.254545e+02,   -2.168664e+02
    2022,   -1.115463e+02,   -2.254545e+02,   -2.189851e+02
    2023,   -1.448988e+02,   -2.254545e+02,   -2.188785e+02
    2024,   -1.796782e+02,   -2.254545e+02,   -2.174912e+02
    2025,   -2.147166e+02,   -2.254545e+02,   -2.158933e+02
    2026,   -2.147047e+02,   -2.254545e+02,   -1.817097e+02
    2027,   -2.133939e+02,   -2.254545e+02,   -1.474125e+02
    2028,   -2.109599e+02,   -2.254545e+02,   -1.125271e+02
    2029,   -2.122614e+02,   -2.254545e+02,   -7.650898e+01
    2030,   -1.743402e+02,   -2.254545e+02,   -8.449678e+01
    2031,   -8.686404e+01,   -2.254545e+02,   -1.836139e+02
    2032,   -1.039130e+02,   -2.254545e+02,   -1.521965e+02
    2033,   -1.798407e+02,   -2.254545e+02,   -1.851685e+02
    2034,   -1.778796e+02,   -2.254545e+02,   -1.536348e+02
    2035,   -1.744260e+02,   -2.254545e+02,   -1.209699e+02
    2036,   -1.463455e+02,   -2.254545e+02,   -1.888011e+02
    2037,   -1.455735e+02,   -2.254545e+02,   -1.611071e+02
    2038,   -1.162877e+02,   -2.254545e+02,   -1.900174e+02
    2039,   -1.378445e+02,   -2.254545e+02,   -1.334891e+02
    2040,   -1.218073e+02,   -2.254545e+02,   -1.676800e+02
    2041,   -1.318990e+02,   -2.254545e+02,   -9.894454e+01
    2042,   -7.460712e+01,   -2.400000e+02,   -1.314812e+02
    2043,   -4.749014e+01,   -2.400000e+02,   -1.792809e+02
    2044,   -3.952587e+01,   -2.400000e+02,   -2.158615e+02
    2045,   -2.143675e+02,   -2.400000e+02,   -3.861692e+01
    2046,   -1.783295e+02,   -2.400000e+02,   -4.331821e+01
    2047,   -1.394960e+02,   -2.400000e+02,   -5.325721e+01
    2048,   -7.699760e+01,   -2.400000e+02,   -2.168664e+02
    2049,   -1.115463e+02,   -2.400000e+02,   -2.189851e+02
    2050,   -1.448988e+02,   -2.400000e+02,   -2.188785e+02
    2051,   -1.796782e+02,   -2.400000e+02,   -2.174912e+02
    2052,   -2.147166e+02,   -2.400000e+02,   -2.158933e+02
    2053,   -2.147047e+02,   -2.400000e+02,   -1.817097e+02
    2054,   -2.133939e+02,   -2.400000e+02,   -1.474125e+02
    2055,   -2.109599e+02,   -2.400000e+02,   -1.125271e+02
    2056,   -2.122614e+02,   -2.400000e+02,   -7.650898e+01
    2057,   -1.743402e+02,   -2.400000e+02,   -8.449678e+01
    2058,   -8.686404e+01,   -2.400000e+02,   -1.836139e+02
    2059,   -1.039130e+02,   -2.400000e+02,   -1.521965e+02
    2060,   -1.798407e+02,   -2.400000e+02,   -1.851685e+02
    2061,   -1.778796e+02,   -2.400000e+02,   -1.536348e+02
    2062,   -1.744260e+02,   -2.400000e+02,   -1.209699e+02
    2063,   -1.463455e+02,   -2.400000e+02,   -1.888011e+02
    2064,   -1.455735e+02,   -2.400000e+02,   -1.611071e+02
    2065,   -1.162877e+02,   -2.400000e+02,   -1.900174e+02
    2066,   -1.378445e+02,   -2.400000e+02,   -1.334891e+02
    2067,   -1.218073e+02,   -2.400000e+02,   -1.676800e+02
    2068,   -1.318990e+02,   -2.400000e+02,   -9.894454e+01
    2341,   -1.100000e+01,   -2.400000e+02,   -1.334865e-14
    2342,   -5.500000e+00,   -2.400000e+02,    0.000000e+00
    2343,   -7.778175e+00,   -2.400000e+02,   -7.778175e+00
    2344,   -4.426058e+00,   -2.400000e+02,   -4.426058e+00
    2345,   -1.100000e+01,   -8.000000e+01,   -6.245699e-15
    2346,   -5.500000e+00,   -8.000000e+01,    0.000000e+00
    2347,   -1.100000e+01,   -9.454545e+01,    4.007935e-15
    2348,   -1.100000e+01,   -1.090909e+02,    3.117283e-15
    2349,   -1.100000e+01,   -1.236364e+02,    2.226631e-15
    2350,   -1.100000e+01,   -1.381818e+02,    1.335978e-15
    2351,   -1.100000e+01,   -1.527273e+02,    4.453261e-16
    2352,   -1.100000e+01,   -1.672727e+02,   -4.453261e-16
    2353,   -1.100000e+01,   -1.818182e+02,   -1.335978e-15
    2354,   -1.100000e+01,   -1.963636e+02,   -2.226631e-15
    2355,   -1.100000e+01,   -2.109091e+02,   -3.117283e-15
    2356,   -1.100000e+01,   -2.254545e+02,   -4.007935e-15
    2357,   -5.500000e+00,   -2.254545e+02,    0.000000e+00
    2358,   -5.500000e+00,   -2.109091e+02,    0.000000e+00
    2359,   -5.500000e+00,   -1.963636e+02,    0.000000e+00
    2360,   -5.500000e+00,   -1.818182e+02,    0.000000e+00
    2361,   -5.500000e+00,   -1.672727e+02,    0.000000e+00
    2362,   -5.500000e+00,   -1.527273e+02,    0.000000e+00
    2363,   -5.500000e+00,   -1.381818e+02,    0.000000e+00
    2364,   -5.500000e+00,   -1.236364e+02,    0.000000e+00
    2365,   -5.500000e+00,   -1.090909e+02,    0.000000e+00
    2366,   -5.500000e+00,   -9.454545e+01,    0.000000e+00
    2367,   -7.778175e+00,   -8.000000e+01,   -7.778175e+00
    2368,   -7.778175e+00,   -9.454545e+01,   -7.778175e+00
    2369,   -7.778175e+00,   -1.090909e+02,   -7.778175e+00
    2370,   -7.778175e+00,   -1.236364e+02,   -7.778175e+00
    2371,   -7.778175e+00,   -1.381818e+02,   -7.778175e+00
    2372,   -7.778175e+00,   -1.527273e+02,   -7.778175e+00
    2373,   -7.778175e+00,   -1.672727e+02,   -7.778175e+00
    2374,   -7.778175e+00,   -1.818182e+02,   -7.778175e+00
    2375,   -7.778175e+00,   -1.963636e+02,   -7.778175e+00
    2376,   -7.778175e+00,   -2.109091e+02,   -7.778175e+00
    2377,   -7.778175e+00,   -2.254545e+02,   -7.778175e+00
    2378,   -4.426058e+00,   -2.254545e+02,   -4.426058e+00
    2379,   -4.426058e+00,   -2.109091e+02,   -4.426058e+00
    2380,   -4.426058e+00,   -1.963636e+02,   -4.426058e+00
    2381,   -4.426058e+00,   -1.818182e+02,   -4.426058e+00
    2382,   -4.426058e+00,   -1.672727e+02,   -4.426058e+00
    2383,   -4.426058e+00,   -1.527273e+02,   -4.426058e+00
    2384,   -4.426058e+00,   -1.381818e+02,   -4.426058e+00
    2385,   -4.426058e+00,   -1.236364e+02,   -4.426058e+00
    2386,   -4.426058e+00,   -1.090909e+02,   -4.426058e+00
    2387,   -4.426058e+00,   -9.454545e+01,   -4.426058e+00
    2388,   -4.426058e+00,   -8.000000e+01,   -4.426058e+00
    2525,    0.000000e+00,   -8.000000e+01,   -1.018333e+02
    2526,    0.000000e+00,   -8.000000e+01,   -8.366667e+01
    2527,    0.000000e+00,   -8.000000e+01,   -6.550000e+01
    2528,    0.000000e+00,   -8.000000e+01,   -4.733333e+01
    2529,    0.000000e+00,   -8.000000e+01,   -2.916667e+01
    2530,    0.000000e+00,   -2.400000e+02,   -2.916667e+01
    2531,    0.000000e+00,   -2.400000e+02,   -4.733333e+01
    2532,    0.000000e+00,   -2.400000e+02,   -6.550000e+01
    2533,    0.000000e+00,   -2.400000e+02,   -8.366667e+01
    2534,    0.000000e+00,   -2.400000e+02,   -1.018333e+02
    2535,    0.000000e+00,   -9.454545e+01,   -2.916667e+01
    2536,    0.000000e+00,   -9.454545e+01,   -4.733333e+01
    2537,    0.000000e+00,   -9.454545e+01,   -6.550000e+01
    2538,    0.000000e+00,   -9.454545e+01,   -8.366667e+01
    2539,    0.000000e+00,   -9.454545e+01,   -1.018333e+02
    2540,    0.000000e+00,   -1.090909e+02,   -2.916667e+01
    2541,    0.000000e+00,   -1.090909e+02,   -4.733333e+01
    2542,    0.000000e+00,   -1.090909e+02,   -6.550000e+01
    2543,    0.000000e+00,   -1.090909e+02,   -8.366667e+01
    2544,    0.000000e+00,   -1.090909e+02,   -1.018333e+02
    2545,    0.000000e+00,   -1.236364e+02,   -2.916667e+01
    2546,    0.000000e+00,   -1.236364e+02,   -4.733333e+01
    2547,    0.000000e+00,   -1.236364e+02,   -6.550000e+01
    2548,    0.000000e+00,   -1.236364e+02,   -8.366667e+01
    2549,    0.000000e+00,   -1.236364e+02,   -1.018333e+02
    2550,    0.000000e+00,   -1.381818e+02,   -2.916667e+01
    2551,    0.000000e+00,   -1.381818e+02,   -4.733333e+01
    2552,    0.000000e+00,   -1.381818e+02,   -6.550000e+01
    2553,    0.000000e+00,   -1.381818e+02,   -8.366667e+01
    2554,    0.000000e+00,   -1.381818e+02,   -1.018333e+02
    2555,    0.000000e+00,   -1.527273e+02,   -2.916667e+01
    2556,    0.000000e+00,   -1.527273e+02,   -4.733333e+01
    2557,    0.000000e+00,   -1.527273e+02,   -6.550000e+01
    2558,    0.000000e+00,   -1.527273e+02,   -8.366667e+01
    2559,    0.000000e+00,   -1.527273e+02,   -1.018333e+02
    2560,    0.000000e+00,   -1.672727e+02,   -2.916667e+01
    2561,    0.000000e+00,   -1.672727e+02,   -4.733333e+01
    2562,    0.000000e+00,   -1.672727e+02,   -6.550000e+01
    2563,    0.000000e+00,   -1.672727e+02,   -8.366667e+01
    2564,    0.000000e+00,   -1.672727e+02,   -1.018333e+02
    2565,    0.000000e+00,   -1.818182e+02,   -2.916667e+01
    2566,    0.000000e+00,   -1.818182e+02,   -4.733333e+01
    2567,    0.000000e+00,   -1.818182e+02,   -6.550000e+01
    2568,    0.000000e+00,   -1.818182e+02,   -8.366667e+01
    2569,    0.000000e+00,   -1.818182e+02,   -1.018333e+02
    2570,    0.000000e+00,   -1.963636e+02,   -2.916667e+01
    2571,    0.000000e+00,   -1.963636e+02,   -4.733333e+01
    2572,    0.000000e+00,   -1.963636e+02,   -6.550000e+01
    2573,    0.000000e+00,   -1.963636e+02,   -8.366667e+01
    2574,    0.000000e+00,   -1.963636e+02,   -1.018333e+02
    2575,    0.000000e+00,   -2.109091e+02,   -2.916667e+01
    2576,    0.000000e+00,   -2.109091e+02,   -4.733333e+01
    2577,    0.000000e+00,   -2.109091e+02,   -6.550000e+01
    2578,    0.000000e+00,   -2.109091e+02,   -8.366667e+01
    2579,    0.000000e+00,   -2.109091e+02,   -1.018333e+02
    2580,    0.000000e+00,   -2.254545e+02,   -2.916667e+01
    2581,    0.000000e+00,   -2.254545e+02,   -4.733333e+01
    2582,    0.000000e+00,   -2.254545e+02,   -6.550000e+01
    2583,    0.000000e+00,   -2.254545e+02,   -8.366667e+01
    2584,    0.000000e+00,   -2.254545e+02,   -1.018333e+02
    2585,    2.916667e+01,   -2.400000e+02,    0.000000e+00
    2586,    4.733333e+01,   -2.400000e+02,    0.000000e+00
    2587,    6.550000e+01,   -2.400000e+02,    0.000000e+00
    2588,    8.366667e+01,   -2.400000e+02,    0.000000e+00
    2589,    1.018333e+02,   -2.400000e+02,    0.000000e+00
    2590,    2.062395e+01,   -2.400000e+02,   -2.062395e+01
    2591,    3.346972e+01,   -2.400000e+02,   -3.346972e+01
    2592,    4.631549e+01,   -2.400000e+02,   -4.631549e+01
    2593,    5.916127e+01,   -2.400000e+02,   -5.916127e+01
    2594,    7.200704e+01,   -2.400000e+02,   -7.200704e+01
    2595,    1.018333e+02,   -8.000000e+01,    0.000000e+00
    2596,    8.366667e+01,   -8.000000e+01,    0.000000e+00
    2597,    6.550000e+01,   -8.000000e+01,    0.000000e+00
    2598,    4.733333e+01,   -8.000000e+01,    0.000000e+00
    2599,    2.916667e+01,   -8.000000e+01,    0.000000e+00
    2600,    1.018333e+02,   -2.254545e+02,    0.000000e+00
    2601,    1.018333e+02,   -2.109091e+02,    0.000000e+00
    2602,    1.018333e+02,   -1.963636e+02,    0.000000e+00
    2603,    1.018333e+02,   -1.818182e+02,    0.000000e+00
    2604,    1.018333e+02,   -1.672727e+02,    0.000000e+00
    2605,    1.018333e+02,   -1.527273e+02,    0.000000e+00
    2606,    1.018333e+02,   -1.381818e+02,    0.000000e+00
    2607,    1.018333e+02,   -1.236364e+02,    0.000000e+00
    2608,    1.018333e+02,   -1.090909e+02,    0.000000e+00
    2609,    1.018333e+02,   -9.454545e+01,    0.000000e+00
    2610,    8.366667e+01,   -2.254545e+02,    0.000000e+00
    2611,    8.366667e+01,   -2.109091e+02,    0.000000e+00
    2612,    8.366667e+01,   -1.963636e+02,    0.000000e+00
    2613,    8.366667e+01,   -1.818182e+02,    0.000000e+00
    2614,    8.366667e+01,   -1.672727e+02,    0.000000e+00
    2615,    8.366667e+01,   -1.527273e+02,    0.000000e+00
    2616,    8.366667e+01,   -1.381818e+02,    0.000000e+00
    2617,    8.366667e+01,   -1.236364e+02,    0.000000e+00
    2618,    8.366667e+01,   -1.090909e+02,    0.000000e+00
    2619,    8.366667e+01,   -9.454545e+01,    0.000000e+00
    2620,    6.550000e+01,   -2.254545e+02,    0.000000e+00
    2621,    6.550000e+01,   -2.109091e+02,    0.000000e+00
    2622,    6.550000e+01,   -1.963636e+02,    0.000000e+00
    2623,    6.550000e+01,   -1.818182e+02,    0.000000e+00
    2624,    6.550000e+01,   -1.672727e+02,    0.000000e+00
    2625,    6.550000e+01,   -1.527273e+02,    0.000000e+00
    2626,    6.550000e+01,   -1.381818e+02,    0.000000e+00
    2627,    6.550000e+01,   -1.236364e+02,    0.000000e+00
    2628,    6.550000e+01,   -1.090909e+02,    0.000000e+00
    2629,    6.550000e+01,   -9.454545e+01,    0.000000e+00
    2630,    4.733333e+01,   -2.254545e+02,    0.000000e+00
    2631,    4.733333e+01,   -2.109091e+02,    0.000000e+00
    2632,    4.733333e+01,   -1.963636e+02,    0.000000e+00
    2633,    4.733333e+01,   -1.818182e+02,    0.000000e+00
    2634,    4.733333e+01,   -1.672727e+02,    0.000000e+00
    2635,    4.733333e+01,   -1.527273e+02,    0.000000e+00
    2636,    4.733333e+01,   -1.381818e+02,    0.000000e+00
    2637,    4.733333e+01,   -1.236364e+02,    0.000000e+00
    2638,    4.733333e+01,   -1.090909e+02,    0.000000e+00
    2639,    4.733333e+01,   -9.454545e+01,    0.000000e+00
    2640,    2.916667e+01,   -2.254545e+02,    0.000000e+00
    2641,    2.916667e+01,   -2.109091e+02,    0.000000e+00
    2642,    2.916667e+01,   -1.963636e+02,    0.000000e+00
    2643,    2.916667e+01,   -1.818182e+02,    0.000000e+00
    2644,    2.916667e+01,   -1.672727e+02,    0.000000e+00
    2645,    2.916667e+01,   -1.527273e+02,    0.000000e+00
    2646,    2.916667e+01,   -1.381818e+02,    0.000000e+00
    2647,    2.916667e+01,   -1.236364e+02,    0.000000e+00
    2648,    2.916667e+01,   -1.090909e+02,    0.000000e+00
    2649,    2.916667e+01,   -9.454545e+01,    0.000000e+00
    2650,    7.200704e+01,   -8.000000e+01,   -7.200704e+01
    2651,    5.916127e+01,   -8.000000e+01,   -5.916127e+01
    2652,    4.631549e+01,   -8.000000e+01,   -4.631549e+01
    2653,    3.346972e+01,   -8.000000e+01,   -3.346972e+01
    2654,    2.062395e+01,   -8.000000e+01,   -2.062395e+01
    2655,    7.200704e+01,   -2.254545e+02,   -7.200704e+01
    2656,    5.916127e+01,   -2.254545e+02,   -5.916127e+01
    2657,    4.631549e+01,   -2.254545e+02,   -4.631549e+01
    2658,    3.346972e+01,   -2.254545e+02,   -3.346972e+01
    2659,    2.062395e+01,   -2.254545e+02,   -2.062395e+01
    2660,    7.200704e+01,   -2.109091e+02,   -7.200704e+01
    2661,    5.916127e+01,   -2.109091e+02,   -5.916127e+01
    2662,    4.631549e+01,   -2.109091e+02,   -4.631549e+01
    2663,    3.346972e+01,   -2.109091e+02,   -3.346972e+01
    2664,    2.062395e+01,   -2.109091e+02,   -2.062395e+01
    2665,    7.200704e+01,   -1.963636e+02,   -7.200704e+01
    2666,    5.916127e+01,   -1.963636e+02,   -5.916127e+01
    2667,    4.631549e+01,   -1.963636e+02,   -4.631549e+01
    2668,    3.346972e+01,   -1.963636e+02,   -3.346972e+01
    2669,    2.062395e+01,   -1.963636e+02,   -2.062395e+01
    2670,    7.200704e+01,   -1.818182e+02,   -7.200704e+01
    2671,    5.916127e+01,   -1.818182e+02,   -5.916127e+01
    2672,    4.631549e+01,   -1.818182e+02,   -4.631549e+01
    2673,    3.346972e+01,   -1.818182e+02,   -3.346972e+01
    2674,    2.062395e+01,   -1.818182e+02,   -2.062395e+01
    2675,    7.200704e+01,   -1.672727e+02,   -7.200704e+01
    2676,    5.916127e+01,   -1.672727e+02,   -5.916127e+01
    2677,    4.631549e+01,   -1.672727e+02,   -4.631549e+01
    2678,    3.346972e+01,   -1.672727e+02,   -3.346972e+01
    2679,    2.062395e+01,   -1.672727e+02,   -2.062395e+01
    2680,    7.200704e+01,   -1.527273e+02,   -7.200704e+01
    2681,    5.916127e+01,   -1.527273e+02,   -5.916127e+01
    2682,    4.631549e+01,   -1.527273e+02,   -4.631549e+01
    2683,    3.346972e+01,   -1.527273e+02,   -3.346972e+01
    2684,    2.062395e+01,   -1.527273e+02,   -2.062395e+01
    2685,    7.200704e+01,   -1.381818e+02,   -7.200704e+01
    2686,    5.916127e+01,   -1.381818e+02,   -5.916127e+01
    2687,    4.631549e+01,   -1.381818e+02,   -4.631549e+01
    2688,    3.346972e+01,   -1.381818e+02,   -3.346972e+01
    2689,    2.062395e+01,   -1.381818e+02,   -2.062395e+01
    2690,    7.200704e+01,   -1.236364e+02,   -7.200704e+01
    2691,    5.916127e+01,   -1.236364e+02,   -5.916127e+01
    2692,    4.631549e+01,   -1.236364e+02,   -4.631549e+01
    2693,    3.346972e+01,   -1.236364e+02,   -3.346972e+01
    2694,    2.062395e+01,   -1.236364e+02,   -2.062395e+01
    2695,    7.200704e+01,   -1.090909e+02,   -7.200704e+01
    2696,    5.916127e+01,   -1.090909e+02,   -5.916127e+01
    2697,    4.631549e+01,   -1.090909e+02,   -4.631549e+01
    2698,    3.346972e+01,   -1.090909e+02,   -3.346972e+01
    2699,    2.062395e+01,   -1.090909e+02,   -2.062395e+01
    2700,    7.200704e+01,   -9.454545e+01,   -7.200704e+01
    2701,    5.916127e+01,   -9.454545e+01,   -5.916127e+01
    2702,    4.631549e+01,   -9.454545e+01,   -4.631549e+01
    2703,    3.346972e+01,   -9.454545e+01,   -3.346972e+01
    2704,    2.062395e+01,   -9.454545e+01,   -2.062395e+01
    2705,    0.000000e+00,    0.000000e+00,   -1.100000e+01
    2706,    0.000000e+00,    0.000000e+00,   -1.018333e+02
    2707,    0.000000e+00,    0.000000e+00,   -8.366667e+01
    2708,    0.000000e+00,    0.000000e+00,   -6.550000e+01
    2709,    0.000000e+00,    0.000000e+00,   -4.733333e+01
    2710,    0.000000e+00,    0.000000e+00,   -2.916667e+01
    2711,    0.000000e+00,   -1.600000e+01,   -1.100000e+01
    2712,    0.000000e+00,   -3.200000e+01,   -1.100000e+01
    2713,    0.000000e+00,   -4.800000e+01,   -1.100000e+01
    2714,    0.000000e+00,   -6.400000e+01,   -1.100000e+01
    2715,    0.000000e+00,   -1.600000e+01,   -2.916667e+01
    2716,    0.000000e+00,   -1.600000e+01,   -4.733333e+01
    2717,    0.000000e+00,   -1.600000e+01,   -6.550000e+01
    2718,    0.000000e+00,   -1.600000e+01,   -8.366667e+01
    2719,    0.000000e+00,   -1.600000e+01,   -1.018333e+02
    2720,    0.000000e+00,   -3.200000e+01,   -2.916667e+01
    2721,    0.000000e+00,   -3.200000e+01,   -4.733333e+01
    2722,    0.000000e+00,   -3.200000e+01,   -6.550000e+01
    2723,    0.000000e+00,   -3.200000e+01,   -8.366667e+01
    2724,    0.000000e+00,   -3.200000e+01,   -1.018333e+02
    2725,    0.000000e+00,   -4.800000e+01,   -2.916667e+01
    2726,    0.000000e+00,   -4.800000e+01,   -4.733333e+01
    2727,    0.000000e+00,   -4.800000e+01,   -6.550000e+01
    2728,    0.000000e+00,   -4.800000e+01,   -8.366667e+01
    2729,    0.000000e+00,   -4.800000e+01,   -1.018333e+02
    2730,    0.000000e+00,   -6.400000e+01,   -2.916667e+01
    2731,    0.000000e+00,   -6.400000e+01,   -4.733333e+01
    2732,    0.000000e+00,   -6.400000e+01,   -6.550000e+01
    2733,    0.000000e+00,   -6.400000e+01,   -8.366667e+01
    2734,    0.000000e+00,   -6.400000e+01,   -1.018333e+02
    2735,    1.100000e+01,    0.000000e+00,   -2.449294e-15
    2736,    1.018333e+02,    0.000000e+00,    0.000000e+00
    2737,    8.366667e+01,    0.000000e+00,    0.000000e+00
    2738,    6.550000e+01,    0.000000e+00,    0.000000e+00
    2739,    4.733333e+01,    0.000000e+00,    0.000000e+00
    2740,    2.916667e+01,    0.000000e+00,    0.000000e+00
    2741,    1.100000e+01,   -1.600000e+01,   -1.469576e-15
    2742,    1.100000e+01,   -3.200000e+01,   -4.898587e-16
    2743,    1.100000e+01,   -4.800000e+01,    4.898587e-16
    2744,    1.100000e+01,   -6.400000e+01,    1.469576e-15
    2745,    1.018333e+02,   -6.400000e+01,    0.000000e+00
    2746,    1.018333e+02,   -4.800000e+01,    0.000000e+00
    2747,    1.018333e+02,   -3.200000e+01,    0.000000e+00
    2748,    1.018333e+02,   -1.600000e+01,    0.000000e+00
    2749,    8.366667e+01,   -6.400000e+01,    0.000000e+00
    2750,    8.366667e+01,   -4.800000e+01,    0.000000e+00
    2751,    8.366667e+01,   -3.200000e+01,    0.000000e+00
    2752,    8.366667e+01,   -1.600000e+01,    0.000000e+00
    2753,    6.550000e+01,   -6.400000e+01,    0.000000e+00
    2754,    6.550000e+01,   -4.800000e+01,    0.000000e+00
    2755,    6.550000e+01,   -3.200000e+01,    0.000000e+00
    2756,    6.550000e+01,   -1.600000e+01,    0.000000e+00
    2757,    4.733333e+01,   -6.400000e+01,    0.000000e+00
    2758,    4.733333e+01,   -4.800000e+01,    0.000000e+00
    2759,    4.733333e+01,   -3.200000e+01,    0.000000e+00
    2760,    4.733333e+01,   -1.600000e+01,    0.000000e+00
    2761,    2.916667e+01,   -6.400000e+01,    0.000000e+00
    2762,    2.916667e+01,   -4.800000e+01,    0.000000e+00
    2763,    2.916667e+01,   -3.200000e+01,    0.000000e+00
    2764,    2.916667e+01,   -1.600000e+01,    0.000000e+00
    2765,    7.778175e+00,    0.000000e+00,   -7.778175e+00
    2766,    7.200704e+01,    0.000000e+00,   -7.200704e+01
    2767,    5.916127e+01,    0.000000e+00,   -5.916127e+01
    2768,    4.631549e+01,    0.000000e+00,   -4.631549e+01
    2769,    3.346972e+01,    0.000000e+00,   -3.346972e+01
    2770,    2.062395e+01,    0.000000e+00,   -2.062395e+01
    2771,    7.778175e+00,   -1.600000e+01,   -7.778175e+00
    2772,    7.778175e+00,   -3.200000e+01,   -7.778175e+00
    2773,    7.778175e+00,   -4.800000e+01,   -7.778175e+00
    2774,    7.778175e+00,   -6.400000e+01,   -7.778175e+00
    2775,    2.062395e+01,   -1.600000e+01,   -2.062395e+01
    2776,    2.062395e+01,   -3.200000e+01,   -2.062395e+01
    2777,    2.062395e+01,   -4.800000e+01,   -2.062395e+01
    2778,    2.062395e+01,   -6.400000e+01,   -2.062395e+01
    2779,    3.346972e+01,   -1.600000e+01,   -3.346972e+01
    2780,    3.346972e+01,   -3.200000e+01,   -3.346972e+01
    2781,    3.346972e+01,   -4.800000e+01,   -3.346972e+01
    2782,    3.346972e+01,   -6.400000e+01,   -3.346972e+01
    2783,    4.631549e+01,   -1.600000e+01,   -4.631549e+01
    2784,    4.631549e+01,   -3.200000e+01,   -4.631549e+01
    2785,    4.631549e+01,   -4.800000e+01,   -4.631549e+01
    2786,    4.631549e+01,   -6.400000e+01,   -4.631549e+01
    2787,    5.916127e+01,   -1.600000e+01,   -5.916127e+01
    2788,    5.916127e+01,   -3.200000e+01,   -5.916127e+01
    2789,    5.916127e+01,   -4.800000e+01,   -5.916127e+01
    2790,    5.916127e+01,   -6.400000e+01,   -5.916127e+01
    2791,    7.200704e+01,   -1.600000e+01,   -7.200704e+01
    2792,    7.200704e+01,   -3.200000e+01,   -7.200704e+01
    2793,    7.200704e+01,   -4.800000e+01,   -7.200704e+01
    2794,    7.200704e+01,   -6.400000e+01,   -7.200704e+01
    2937,   -2.916667e+01,   -8.000000e+01,    0.000000e+00
    2938,   -4.733333e+01,   -8.000000e+01,    0.000000e+00
    2939,   -6.550000e+01,   -8.000000e+01,    0.000000e+00
    2940,   -8.366667e+01,   -8.000000e+01,    0.000000e+00
    2941,   -1.018333e+02,   -8.000000e+01,    0.000000e+00
    2942,   -2.062395e+01,   -8.000000e+01,   -2.062395e+01
    2943,   -3.346972e+01,   -8.000000e+01,   -3.346972e+01
    2944,   -4.631549e+01,   -8.000000e+01,   -4.631549e+01
    2945,   -5.916127e+01,   -8.000000e+01,   -5.916127e+01
    2946,   -7.200704e+01,   -8.000000e+01,   -7.200704e+01
    2947,   -1.018333e+02,   -2.400000e+02,    0.000000e+00
    2948,   -8.366667e+01,   -2.400000e+02,    0.000000e+00
    2949,   -6.550000e+01,   -2.400000e+02,    0.000000e+00
    2950,   -4.733333e+01,   -2.400000e+02,    0.000000e+00
    2951,   -2.916667e+01,   -2.400000e+02,    0.000000e+00
    2952,   -1.018333e+02,   -9.454545e+01,    0.000000e+00
    2953,   -1.018333e+02,   -1.090909e+02,    0.000000e+00
    2954,   -1.018333e+02,   -1.236364e+02,    0.000000e+00
    2955,   -1.018333e+02,   -1.381818e+02,    0.000000e+00
    2956,   -1.018333e+02,   -1.527273e+02,    0.000000e+00
    2957,   -1.018333e+02,   -1.672727e+02,    0.000000e+00
    2958,   -1.018333e+02,   -1.818182e+02,    0.000000e+00
    2959,   -1.018333e+02,   -1.963636e+02,    0.000000e+00
    2960,   -1.018333e+02,   -2.109091e+02,    0.000000e+00
    2961,   -1.018333e+02,   -2.254545e+02,    0.000000e+00
    2962,   -8.366667e+01,   -9.454545e+01,    0.000000e+00
    2963,   -8.366667e+01,   -1.090909e+02,    0.000000e+00
    2964,   -8.366667e+01,   -1.236364e+02,    0.000000e+00
    2965,   -8.366667e+01,   -1.381818e+02,    0.000000e+00
    2966,   -8.366667e+01,   -1.527273e+02,    0.000000e+00
    2967,   -8.366667e+01,   -1.672727e+02,    0.000000e+00
    2968,   -8.366667e+01,   -1.818182e+02,    0.000000e+00
    2969,   -8.366667e+01,   -1.963636e+02,    0.000000e+00
    2970,   -8.366667e+01,   -2.109091e+02,    0.000000e+00
    2971,   -8.366667e+01,   -2.254545e+02,    0.000000e+00
    2972,   -6.550000e+01,   -9.454545e+01,    0.000000e+00
    2973,   -6.550000e+01,   -1.090909e+02,    0.000000e+00
    2974,   -6.550000e+01,   -1.236364e+02,    0.000000e+00
    2975,   -6.550000e+01,   -1.381818e+02,    0.000000e+00
    2976,   -6.550000e+01,   -1.527273e+02,    0.000000e+00
    2977,   -6.550000e+01,   -1.672727e+02,    0.000000e+00
    2978,   -6.550000e+01,   -1.818182e+02,    0.000000e+00
    2979,   -6.550000e+01,   -1.963636e+02,    0.000000e+00
    2980,   -6.550000e+01,   -2.109091e+02,    0.000000e+00
    2981,   -6.550000e+01,   -2.254545e+02,    0.000000e+00
    2982,   -4.733333e+01,   -9.454545e+01,    0.000000e+00
    2983,   -4.733333e+01,   -1.090909e+02,    0.000000e+00
    2984,   -4.733333e+01,   -1.236364e+02,    0.000000e+00
    2985,   -4.733333e+01,   -1.381818e+02,    0.000000e+00
    2986,   -4.733333e+01,   -1.527273e+02,    0.000000e+00
    2987,   -4.733333e+01,   -1.672727e+02,    0.000000e+00
    2988,   -4.733333e+01,   -1.818182e+02,    0.000000e+00
    2989,   -4.733333e+01,   -1.963636e+02,    0.000000e+00
    2990,   -4.733333e+01,   -2.109091e+02,    0.000000e+00
    2991,   -4.733333e+01,   -2.254545e+02,    0.000000e+00
    2992,   -2.916667e+01,   -9.454545e+01,    0.000000e+00
    2993,   -2.916667e+01,   -1.090909e+02,    0.000000e+00
    2994,   -2.916667e+01,   -1.236364e+02,    0.000000e+00
    2995,   -2.916667e+01,   -1.381818e+02,    0.000000e+00
    2996,   -2.916667e+01,   -1.527273e+02,    0.000000e+00
    2997,   -2.916667e+01,   -1.672727e+02,    0.000000e+00
    2998,   -2.916667e+01,   -1.818182e+02,    0.000000e+00
    2999,   -2.916667e+01,   -1.963636e+02,    0.000000e+00
    3000,   -2.916667e+01,   -2.109091e+02,    0.000000e+00
    3001,   -2.916667e+01,   -2.254545e+02,    0.000000e+00
    3002,   -7.200704e+01,   -2.400000e+02,   -7.200704e+01
    3003,   -5.916127e+01,   -2.400000e+02,   -5.916127e+01
    3004,   -4.631549e+01,   -2.400000e+02,   -4.631549e+01
    3005,   -3.346972e+01,   -2.400000e+02,   -3.346972e+01
    3006,   -2.062395e+01,   -2.400000e+02,   -2.062395e+01
    3007,   -7.200704e+01,   -9.454545e+01,   -7.200704e+01
    3008,   -5.916127e+01,   -9.454545e+01,   -5.916127e+01
    3009,   -4.631549e+01,   -9.454545e+01,   -4.631549e+01
    3010,   -3.346972e+01,   -9.454545e+01,   -3.346972e+01
    3011,   -2.062395e+01,   -9.454545e+01,   -2.062395e+01
    3012,   -7.200704e+01,   -1.090909e+02,   -7.200704e+01
    3013,   -5.916127e+01,   -1.090909e+02,   -5.916127e+01
    3014,   -4.631549e+01,   -1.090909e+02,   -4.631549e+01
    3015,   -3.346972e+01,   -1.090909e+02,   -3.346972e+01
    3016,   -2.062395e+01,   -1.090909e+02,   -2.062395e+01
    3017,   -7.200704e+01,   -1.236364e+02,   -7.200704e+01
    3018,   -5.916127e+01,   -1.236364e+02,   -5.916127e+01
    3019,   -4.631549e+01,   -1.236364e+02,   -4.631549e+01
    3020,   -3.346972e+01,   -1.236364e+02,   -3.346972e+01
    3021,   -2.062395e+01,   -1.236364e+02,   -2.062395e+01
    3022,   -7.200704e+01,   -1.381818e+02,   -7.200704e+01
    3023,   -5.916127e+01,   -1.381818e+02,   -5.916127e+01
    3024,   -4.631549e+01,   -1.381818e+02,   -4.631549e+01
    3025,   -3.346972e+01,   -1.381818e+02,   -3.346972e+01
    3026,   -2.062395e+01,   -1.381818e+02,   -2.062395e+01
    3027,   -7.200704e+01,   -1.527273e+02,   -7.200704e+01
    3028,   -5.916127e+01,   -1.527273e+02,   -5.916127e+01
    3029,   -4.631549e+01,   -1.527273e+02,   -4.631549e+01
    3030,   -3.346972e+01,   -1.527273e+02,   -3.346972e+01
    3031,   -2.062395e+01,   -1.527273e+02,   -2.062395e+01
    3032,   -7.200704e+01,   -1.672727e+02,   -7.200704e+01
    3033,   -5.916127e+01,   -1.672727e+02,   -5.916127e+01
    3034,   -4.631549e+01,   -1.672727e+02,   -4.631549e+01
    3035,   -3.346972e+01,   -1.672727e+02,   -3.346972e+01
    3036,   -2.062395e+01,   -1.672727e+02,   -2.062395e+01
    3037,   -7.200704e+01,   -1.818182e+02,   -7.200704e+01
    3038,   -5.916127e+01,   -1.818182e+02,   -5.916127e+01
    3039,   -4.631549e+01,   -1.818182e+02,   -4.631549e+01
    3040,   -3.346972e+01,   -1.818182e+02,   -3.346972e+01
    3041,   -2.062395e+01,   -1.818182e+02,   -2.062395e+01
    3042,   -7.200704e+01,   -1.963636e+02,   -7.200704e+01
    3043,   -5.916127e+01,   -1.963636e+02,   -5.916127e+01
    3044,   -4.631549e+01,   -1.963636e+02,   -4.631549e+01
    3045,   -3.346972e+01,   -1.963636e+02,   -3.346972e+01
    3046,   -2.062395e+01,   -1.963636e+02,   -2.062395e+01
    3047,   -7.200704e+01,   -2.109091e+02,   -7.200704e+01
    3048,   -5.916127e+01,   -2.109091e+02,   -5.916127e+01
    3049,   -4.631549e+01,   -2.109091e+02,   -4.631549e+01
    3050,   -3.346972e+01,   -2.109091e+02,   -3.346972e+01
    3051,   -2.062395e+01,   -2.109091e+02,   -2.062395e+01
    3052,   -7.200704e+01,   -2.254545e+02,   -7.200704e+01
    3053,   -5.916127e+01,   -2.254545e+02,   -5.916127e+01
    3054,   -4.631549e+01,   -2.254545e+02,   -4.631549e+01
    3055,   -3.346972e+01,   -2.254545e+02,   -3.346972e+01
    3056,   -2.062395e+01,   -2.254545e+02,   -2.062395e+01
    3057,   -1.100000e+01,    0.000000e+00,    0.000000e+00
    3058,   -7.778175e+00,    0.000000e+00,   -7.778175e+00
    3059,   -1.100000e+01,   -6.400000e+01,    1.469576e-15
    3060,   -1.100000e+01,   -4.800000e+01,    4.898587e-16
    3061,   -1.100000e+01,   -3.200000e+01,   -4.898587e-16
    3062,   -1.100000e+01,   -1.600000e+01,   -1.469576e-15
    3063,   -7.778175e+00,   -6.400000e+01,   -7.778175e+00
    3064,   -7.778175e+00,   -4.800000e+01,   -7.778175e+00
    3065,   -7.778175e+00,   -3.200000e+01,   -7.778175e+00
    3066,   -7.778175e+00,   -1.600000e+01,   -7.778175e+00
    3067,   -2.916667e+01,    0.000000e+00,    0.000000e+00
    3068,   -4.733333e+01,    0.000000e+00,    0.000000e+00
    3069,   -6.550000e+01,    0.000000e+00,    0.000000e+00
    3070,   -8.366667e+01,    0.000000e+00,    0.000000e+00
    3071,   -1.018333e+02,    0.000000e+00,    0.000000e+00
    3072,   -2.062395e+01,    0.000000e+00,   -2.062395e+01
    3073,   -3.346972e+01,    0.000000e+00,   -3.346972e+01
    3074,   -4.631549e+01,    0.000000e+00,   -4.631549e+01
    3075,   -5.916127e+01,    0.000000e+00,   -5.916127e+01
    3076,   -7.200704e+01,    0.000000e+00,   -7.200704e+01
    3077,   -1.018333e+02,   -1.600000e+01,    0.000000e+00
    3078,   -1.018333e+02,   -3.200000e+01,    0.000000e+00
    3079,   -1.018333e+02,   -4.800000e+01,    0.000000e+00
    3080,   -1.018333e+02,   -6.400000e+01,    0.000000e+00
    3081,   -8.366667e+01,   -1.600000e+01,    0.000000e+00
    3082,   -8.366667e+01,   -3.200000e+01,    0.000000e+00
    3083,   -8.366667e+01,   -4.800000e+01,    0.000000e+00
    3084,   -8.366667e+01,   -6.400000e+01,    0.000000e+00
    3085,   -6.550000e+01,   -1.600000e+01,    0.000000e+00
    3086,   -6.550000e+01,   -3.200000e+01,    0.000000e+00
    3087,   -6.550000e+01,   -4.800000e+01,    0.000000e+00
    3088,   -6.550000e+01,   -6.400000e+01,    0.000000e+00
    3089,   -4.733333e+01,   -1.600000e+01,    0.000000e+00
    3090,   -4.733333e+01,   -3.200000e+01,    0.000000e+00
    3091,   -4.733333e+01,   -4.800000e+01,    0.000000e+00
    3092,   -4.733333e+01,   -6.400000e+01,    0.000000e+00
    3093,   -2.916667e+01,   -1.600000e+01,    0.000000e+00
    3094,   -2.916667e+01,   -3.200000e+01,    0.000000e+00
    3095,   -2.916667e+01,   -4.800000e+01,    0.000000e+00
    3096,   -2.916667e+01,   -6.400000e+01,    0.000000e+00
    3097,   -7.200704e+01,   -1.600000e+01,   -7.200704e+01
    3098,   -5.916127e+01,   -1.600000e+01,   -5.916127e+01
    3099,   -4.631549e+01,   -1.600000e+01,   -4.631549e+01
    3100,   -3.346972e+01,   -1.600000e+01,   -3.346972e+01
    3101,   -2.062395e+01,   -1.600000e+01,   -2.062395e+01
    3102,   -7.200704e+01,   -3.200000e+01,   -7.200704e+01
    3103,   -5.916127e+01,   -3.200000e+01,   -5.916127e+01
    3104,   -4.631549e+01,   -3.200000e+01,   -4.631549e+01
    3105,   -3.346972e+01,   -3.200000e+01,   -3.346972e+01
    3106,   -2.062395e+01,   -3.200000e+01,   -2.062395e+01
    3107,   -7.200704e+01,   -4.800000e+01,   -7.200704e+01
    3108,   -5.916127e+01,   -4.800000e+01,   -5.916127e+01
    3109,   -4.631549e+01,   -4.800000e+01,   -4.631549e+01
    3110,   -3.346972e+01,   -4.800000e+01,   -3.346972e+01
    3111,   -2.062395e+01,   -4.800000e+01,   -2.062395e+01
    3112,   -7.200704e+01,   -6.400000e+01,   -7.200704e+01
    3113,   -5.916127e+01,   -6.400000e+01,   -5.916127e+01
    3114,   -4.631549e+01,   -6.400000e+01,   -4.631549e+01
    3115,   -3.346972e+01,   -6.400000e+01,   -3.346972e+01
    3116,   -2.062395e+01,   -6.400000e+01,   -2.062395e+01
    3149,    0.000000e+00,   -2.400000e+02,   -1.362500e+02
    3150,    0.000000e+00,   -2.400000e+02,   -1.687500e+02
    3151,    0.000000e+00,   -2.400000e+02,   -2.012500e+02
    3152,    0.000000e+00,   -2.400000e+02,   -2.337500e+02
    3153,    0.000000e+00,   -8.727273e+01,   -1.200000e+02
    3154,    0.000000e+00,   -1.018182e+02,   -1.200000e+02
    3155,    0.000000e+00,   -1.163636e+02,   -1.200000e+02
    3156,    0.000000e+00,   -1.309091e+02,   -1.200000e+02
    3157,    0.000000e+00,   -1.454545e+02,   -1.200000e+02
    3158,    0.000000e+00,   -1.600000e+02,   -1.200000e+02
    3159,    0.000000e+00,   -1.745455e+02,   -1.200000e+02
    3160,    0.000000e+00,   -1.890909e+02,   -1.200000e+02
    3161,    0.000000e+00,   -2.036364e+02,   -1.200000e+02
    3162,    0.000000e+00,   -2.181818e+02,   -1.200000e+02
    3163,    0.000000e+00,   -2.327273e+02,   -1.200000e+02
    3164,    0.000000e+00,   -8.000000e+01,   -2.337500e+02
    3165,    0.000000e+00,   -8.000000e+01,   -2.012500e+02
    3166,    0.000000e+00,   -8.000000e+01,   -1.687500e+02
    3167,    0.000000e+00,   -8.000000e+01,   -1.362500e+02
    3168,    0.000000e+00,   -2.327273e+02,   -2.500000e+02
    3169,    0.000000e+00,   -2.181818e+02,   -2.500000e+02
    3170,    0.000000e+00,   -2.036364e+02,   -2.500000e+02
    3171,    0.000000e+00,   -1.890909e+02,   -2.500000e+02
    3172,    0.000000e+00,   -1.745455e+02,   -2.500000e+02
    3173,    0.000000e+00,   -1.600000e+02,   -2.500000e+02
    3174,    0.000000e+00,   -1.454545e+02,   -2.500000e+02
    3175,    0.000000e+00,   -1.309091e+02,   -2.500000e+02
    3176,    0.000000e+00,   -1.163636e+02,   -2.500000e+02
    3177,    0.000000e+00,   -1.018182e+02,   -2.500000e+02
    3178,    0.000000e+00,   -8.727273e+01,   -2.500000e+02
    3179,    0.000000e+00,   -2.327273e+02,   -2.175000e+02
    3180,    0.000000e+00,   -2.254545e+02,   -2.337500e+02
    3181,    0.000000e+00,   -2.327273e+02,   -1.850000e+02
    3182,    0.000000e+00,   -2.254545e+02,   -2.012500e+02
    3183,    0.000000e+00,   -2.327273e+02,   -1.525000e+02
    3184,    0.000000e+00,   -2.254545e+02,   -1.687500e+02
    3185,    0.000000e+00,   -2.254545e+02,   -1.362500e+02
    3186,    0.000000e+00,   -2.181818e+02,   -2.175000e+02
    3187,    0.000000e+00,   -2.109091e+02,   -2.337500e+02
    3188,    0.000000e+00,   -2.181818e+02,   -1.850000e+02
    3189,    0.000000e+00,   -2.109091e+02,   -2.012500e+02
    3190,    0.000000e+00,   -2.181818e+02,   -1.525000e+02
    3191,    0.000000e+00,   -2.109091e+02,   -1.687500e+02
    3192,    0.000000e+00,   -2.109091e+02,   -1.362500e+02
    3193,    0.000000e+00,   -2.036364e+02,   -2.175000e+02
    3194,    0.000000e+00,   -1.963636e+02,   -2.337500e+02
    3195,    0.000000e+00,   -2.036364e+02,   -1.850000e+02
    3196,    0.000000e+00,   -1.963636e+02,   -2.012500e+02
    3197,    0.000000e+00,   -2.036364e+02,   -1.525000e+02
    3198,    0.000000e+00,   -1.963636e+02,   -1.687500e+02
    3199,    0.000000e+00,   -1.963636e+02,   -1.362500e+02
    3200,    0.000000e+00,   -1.890909e+02,   -2.175000e+02
    3201,    0.000000e+00,   -1.818182e+02,   -2.337500e+02
    3202,    0.000000e+00,   -1.890909e+02,   -1.850000e+02
    3203,    0.000000e+00,   -1.818182e+02,   -2.012500e+02
    3204,    0.000000e+00,   -1.890909e+02,   -1.525000e+02
    3205,    0.000000e+00,   -1.818182e+02,   -1.687500e+02
    3206,    0.000000e+00,   -1.818182e+02,   -1.362500e+02
    3207,    0.000000e+00,   -1.745455e+02,   -2.175000e+02
    3208,    0.000000e+00,   -1.672727e+02,   -2.337500e+02
    3209,    0.000000e+00,   -1.745455e+02,   -1.850000e+02
    3210,    0.000000e+00,   -1.672727e+02,   -2.012500e+02
    3211,    0.000000e+00,   -1.745455e+02,   -1.525000e+02
    3212,    0.000000e+00,   -1.672727e+02,   -1.687500e+02
    3213,    0.000000e+00,   -1.672727e+02,   -1.362500e+02
    3214,    0.000000e+00,   -1.600000e+02,   -2.175000e+02
    3215,    0.000000e+00,   -1.527273e+02,   -2.337500e+02
    3216,    0.000000e+00,   -1.600000e+02,   -1.850000e+02
    3217,    0.000000e+00,   -1.527273e+02,   -2.012500e+02
    3218,    0.000000e+00,   -1.600000e+02,   -1.525000e+02
    3219,    0.000000e+00,   -1.527273e+02,   -1.687500e+02
    3220,    0.000000e+00,   -1.527273e+02,   -1.362500e+02
    3221,    0.000000e+00,   -1.454545e+02,   -2.175000e+02
    3222,    0.000000e+00,   -1.381818e+02,   -2.337500e+02
    3223,    0.000000e+00,   -1.454545e+02,   -1.850000e+02
    3224,    0.000000e+00,   -1.381818e+02,   -2.012500e+02
    3225,    0.000000e+00,   -1.454545e+02,   -1.525000e+02
    3226,    0.000000e+00,   -1.381818e+02,   -1.687500e+02
    3227,    0.000000e+00,   -1.381818e+02,   -1.362500e+02
    3228,    0.000000e+00,   -1.309091e+02,   -2.175000e+02
    3229,    0.000000e+00,   -1.236364e+02,   -2.337500e+02
    3230,    0.000000e+00,   -1.309091e+02,   -1.850000e+02
    3231,    0.000000e+00,   -1.236364e+02,   -2.012500e+02
    3232,    0.000000e+00,   -1.309091e+02,   -1.525000e+02
    3233,    0.000000e+00,   -1.236364e+02,   -1.687500e+02
    3234,    0.000000e+00,   -1.236364e+02,   -1.362500e+02
    3235,    0.000000e+00,   -1.163636e+02,   -2.175000e+02
    3236,    0.000000e+00,   -1.090909e+02,   -2.337500e+02
    3237,    0.000000e+00,   -1.163636e+02,   -1.850000e+02
    3238,    0.000000e+00,   -1.090909e+02,   -2.012500e+02
    3239,    0.000000e+00,   -1.163636e+02,   -1.525000e+02
    3240,    0.000000e+00,   -1.090909e+02,   -1.687500e+02
    3241,    0.000000e+00,   -1.090909e+02,   -1.362500e+02
    3242,    0.000000e+00,   -1.018182e+02,   -2.175000e+02
    3243,    0.000000e+00,   -9.454545e+01,   -2.337500e+02
    3244,    0.000000e+00,   -1.018182e+02,   -1.850000e+02
    3245,    0.000000e+00,   -9.454545e+01,   -2.012500e+02
    3246,    0.000000e+00,   -1.018182e+02,   -1.525000e+02
    3247,    0.000000e+00,   -9.454545e+01,   -1.687500e+02
    3248,    0.000000e+00,   -9.454545e+01,   -1.362500e+02
    3249,    0.000000e+00,   -8.727273e+01,   -2.175000e+02
    3250,    0.000000e+00,   -8.727273e+01,   -1.850000e+02
    3251,    0.000000e+00,   -8.727273e+01,   -1.525000e+02
    3252,    4.592201e+01,   -8.000000e+01,   -1.108655e+02
    3253,    1.108655e+02,   -8.000000e+01,   -4.592201e+01
    3254,    2.337500e+02,   -8.000000e+01,    0.000000e+00
    3255,    2.012500e+02,   -8.000000e+01,    0.000000e+00
    3256,    1.687500e+02,   -8.000000e+01,    0.000000e+00
    3257,    1.362500e+02,   -8.000000e+01,    0.000000e+00
    3258,    2.500000e+02,   -8.000000e+01,   -2.321429e+02
    3259,    2.500000e+02,   -8.000000e+01,   -1.964286e+02
    3260,    2.500000e+02,   -8.000000e+01,   -1.607143e+02
    3261,    2.500000e+02,   -8.000000e+01,   -1.250000e+02
    3262,    2.500000e+02,   -8.000000e+01,   -8.928571e+01
    3263,    2.500000e+02,   -8.000000e+01,   -5.357143e+01
    3264,    2.500000e+02,   -8.000000e+01,   -1.785714e+01
    3265,    1.785714e+01,   -8.000000e+01,   -2.500000e+02
    3266,    5.357143e+01,   -8.000000e+01,   -2.500000e+02
    3267,    8.928571e+01,   -8.000000e+01,   -2.500000e+02
    3268,    1.250000e+02,   -8.000000e+01,   -2.500000e+02
    3269,    1.607143e+02,   -8.000000e+01,   -2.500000e+02
    3270,    1.964286e+02,   -8.000000e+01,   -2.500000e+02
    3271,    2.321429e+02,   -8.000000e+01,   -2.500000e+02
    3272,    2.269051e+01,   -8.000000e+01,   -2.156426e+02
    3273,    4.054766e+01,   -8.000000e+01,   -2.318926e+02
    3274,    3.451152e+01,   -8.000000e+01,   -1.772737e+02
    3275,    5.720203e+01,   -8.000000e+01,   -1.916663e+02
    3276,    3.619901e+01,   -8.000000e+01,   -1.403574e+02
    3277,    7.071053e+01,   -8.000000e+01,   -1.488811e+02
    3278,    7.862542e+01,   -8.000000e+01,   -1.065338e+02
    3279,    1.454386e+02,   -8.000000e+01,   -2.708586e+01
    3280,    1.116150e+02,   -8.000000e+01,   -6.951226e+01
    3281,    1.812379e+02,   -8.000000e+01,   -2.191185e+01
    3282,    1.579265e+02,   -8.000000e+01,   -4.899771e+01
    3283,    2.154936e+02,   -8.000000e+01,   -1.936851e+01
    3284,    1.954815e+02,   -8.000000e+01,   -4.128036e+01
    3285,    2.317436e+02,   -8.000000e+01,   -3.722566e+01
    3286,    2.142590e+02,   -8.000000e+01,   -2.334001e+02
    3287,    2.321161e+02,   -8.000000e+01,   -2.155430e+02
    3288,    1.787044e+02,   -8.000000e+01,   -2.348255e+02
    3289,    1.965348e+02,   -8.000000e+01,   -2.182256e+02
    3290,    1.433047e+02,   -8.000000e+01,   -2.364142e+02
    3291,    1.612948e+02,   -8.000000e+01,   -2.212397e+02
    3292,    1.104989e+02,   -8.000000e+01,   -2.369785e+02
    3293,    1.288036e+02,   -8.000000e+01,   -2.233927e+02
    3294,    7.751624e+01,   -8.000000e+01,   -2.339358e+02
    3295,    9.872942e+01,   -8.000000e+01,   -2.209143e+02
    3296,    6.449247e+01,   -8.000000e+01,   -2.158284e+02
    3297,    2.305659e+02,   -8.000000e+01,   -7.430102e+01
    3298,    2.123095e+02,   -8.000000e+01,   -5.795525e+01
    3299,    2.301583e+02,   -8.000000e+01,   -1.106861e+02
    3300,    2.107242e+02,   -8.000000e+01,   -9.570136e+01
    3301,    2.303141e+02,   -8.000000e+01,   -1.461216e+02
    3302,    2.104724e+02,   -8.000000e+01,   -1.318076e+02
    3303,    2.315224e+02,   -8.000000e+01,   -1.810188e+02
    3304,    2.118365e+02,   -8.000000e+01,   -1.664261e+02
    3305,    2.136385e+02,   -8.000000e+01,   -2.001332e+02
    3306,    8.540588e+01,   -8.000000e+01,   -1.789494e+02
    3307,    9.269632e+01,   -8.000000e+01,   -2.031114e+02
    3308,    1.916849e+02,   -8.000000e+01,   -8.145717e+01
    3309,    1.748569e+02,   -8.000000e+01,   -6.478228e+01
    3310,    1.900963e+02,   -8.000000e+01,   -1.190805e+02
    3311,    1.710569e+02,   -8.000000e+01,   -1.048364e+02
    3312,    1.912846e+02,   -8.000000e+01,   -1.537900e+02
    3313,    1.709085e+02,   -8.000000e+01,   -1.410629e+02
    3314,    1.945158e+02,   -8.000000e+01,   -1.864681e+02
    3315,    1.739639e+02,   -8.000000e+01,   -1.738320e+02
    3316,    1.774121e+02,   -8.000000e+01,   -2.045605e+02
    3317,    1.432642e+02,   -8.000000e+01,   -2.097376e+02
    3318,    1.593816e+02,   -8.000000e+01,   -1.930583e+02
    3319,    1.531481e+02,   -8.000000e+01,   -1.643074e+02
    3320,    1.385657e+02,   -8.000000e+01,   -1.835338e+02
    3321,    1.102947e+02,   -8.000000e+01,   -1.957137e+02
    3322,    1.163278e+02,   -8.000000e+01,   -2.135165e+02
    3323,    1.180720e+02,   -8.000000e+01,   -1.793861e+02
    3324,    1.307885e+02,   -8.000000e+01,   -1.998614e+02
    3325,    1.503476e+02,   -8.000000e+01,   -9.305481e+01
    3326,    1.334172e+02,   -8.000000e+01,   -7.727023e+01
    3327,    1.480285e+02,   -8.000000e+01,   -1.315263e+02
    3328,    1.273191e+02,   -8.000000e+01,   -1.197448e+02
    3329,    1.302681e+02,   -8.000000e+01,   -1.547708e+02
    3330,    1.004276e+02,   -8.000000e+01,   -1.142918e+02
    3331,    9.760206e+01,   -8.000000e+01,   -1.543341e+02
    3332,    1.108655e+02,   -2.400000e+02,   -4.592201e+01
    3333,    4.592201e+01,   -2.400000e+02,   -1.108655e+02
    3334,    1.200000e+02,   -8.727273e+01,    4.453261e-15
    3335,    1.200000e+02,   -1.018182e+02,    3.562609e-15
    3336,    1.200000e+02,   -1.163636e+02,    2.671957e-15
    3337,    1.200000e+02,   -1.309091e+02,    1.781304e-15
    3338,    1.200000e+02,   -1.454545e+02,    8.906522e-16
    3339,    1.200000e+02,   -1.600000e+02,    1.663737e-63
    3340,    1.200000e+02,   -1.745455e+02,   -8.906522e-16
    3341,    1.200000e+02,   -1.890909e+02,   -1.781304e-15
    3342,    1.200000e+02,   -2.036364e+02,   -2.671957e-15
    3343,    1.200000e+02,   -2.181818e+02,   -3.562609e-15
    3344,    1.200000e+02,   -2.327273e+02,   -4.453261e-15
    3345,    4.592201e+01,   -9.454545e+01,   -1.108655e+02
    3346,    8.485281e+01,   -8.727273e+01,   -8.485281e+01
    3347,    4.592201e+01,   -1.090909e+02,   -1.108655e+02
    3348,    8.485281e+01,   -1.018182e+02,   -8.485281e+01
    3349,    4.592201e+01,   -1.236364e+02,   -1.108655e+02
    3350,    8.485281e+01,   -1.163636e+02,   -8.485281e+01
    3351,    4.592201e+01,   -1.381818e+02,   -1.108655e+02
    3352,    8.485281e+01,   -1.309091e+02,   -8.485281e+01
    3353,    4.592201e+01,   -1.527273e+02,   -1.108655e+02
    3354,    8.485281e+01,   -1.454545e+02,   -8.485281e+01
    3355,    4.592201e+01,   -1.672727e+02,   -1.108655e+02
    3356,    8.485281e+01,   -1.600000e+02,   -8.485281e+01
    3357,    4.592201e+01,   -1.818182e+02,   -1.108655e+02
    3358,    8.485281e+01,   -1.745455e+02,   -8.485281e+01
    3359,    4.592201e+01,   -1.963636e+02,   -1.108655e+02
    3360,    8.485281e+01,   -1.890909e+02,   -8.485281e+01
    3361,    4.592201e+01,   -2.109091e+02,   -1.108655e+02
    3362,    8.485281e+01,   -2.036364e+02,   -8.485281e+01
    3363,    4.592201e+01,   -2.254545e+02,   -1.108655e+02
    3364,    8.485281e+01,   -2.181818e+02,   -8.485281e+01
    3365,    8.485281e+01,   -2.327273e+02,   -8.485281e+01
    3366,    1.108655e+02,   -9.454545e+01,   -4.592201e+01
    3367,    1.108655e+02,   -1.090909e+02,   -4.592201e+01
    3368,    1.108655e+02,   -1.236364e+02,   -4.592201e+01
    3369,    1.108655e+02,   -1.381818e+02,   -4.592201e+01
    3370,    1.108655e+02,   -1.527273e+02,   -4.592201e+01
    3371,    1.108655e+02,   -1.672727e+02,   -4.592201e+01
    3372,    1.108655e+02,   -1.818182e+02,   -4.592201e+01
    3373,    1.108655e+02,   -1.963636e+02,   -4.592201e+01
    3374,    1.108655e+02,   -2.109091e+02,   -4.592201e+01
    3375,    1.108655e+02,   -2.254545e+02,   -4.592201e+01
    3376,    1.362500e+02,   -2.400000e+02,    0.000000e+00
    3377,    1.687500e+02,   -2.400000e+02,    0.000000e+00
    3378,    2.012500e+02,   -2.400000e+02,    0.000000e+00
    3379,    2.337500e+02,   -2.400000e+02,    0.000000e+00
    3380,    2.500000e+02,   -2.327273e+02,    0.000000e+00
    3381,    2.500000e+02,   -2.181818e+02,    0.000000e+00
    3382,    2.500000e+02,   -2.036364e+02,    0.000000e+00
    3383,    2.500000e+02,   -1.890909e+02,    0.000000e+00
    3384,    2.500000e+02,   -1.745455e+02,    0.000000e+00
    3385,    2.500000e+02,   -1.600000e+02,    0.000000e+00
    3386,    2.500000e+02,   -1.454545e+02,    0.000000e+00
    3387,    2.500000e+02,   -1.309091e+02,    0.000000e+00
    3388,    2.500000e+02,   -1.163636e+02,    0.000000e+00
    3389,    2.500000e+02,   -1.018182e+02,    0.000000e+00
    3390,    2.500000e+02,   -8.727273e+01,    0.000000e+00
    3391,    1.362500e+02,   -9.454545e+01,    0.000000e+00
    3392,    1.525000e+02,   -8.727273e+01,    0.000000e+00
    3393,    1.362500e+02,   -1.090909e+02,    0.000000e+00
    3394,    1.525000e+02,   -1.018182e+02,    0.000000e+00
    3395,    1.362500e+02,   -1.236364e+02,    0.000000e+00
    3396,    1.525000e+02,   -1.163636e+02,    0.000000e+00
    3397,    1.362500e+02,   -1.381818e+02,    0.000000e+00
    3398,    1.525000e+02,   -1.309091e+02,    0.000000e+00
    3399,    1.362500e+02,   -1.527273e+02,    0.000000e+00
    3400,    1.525000e+02,   -1.454545e+02,    0.000000e+00
    3401,    1.362500e+02,   -1.672727e+02,    0.000000e+00
    3402,    1.525000e+02,   -1.600000e+02,    0.000000e+00
    3403,    1.362500e+02,   -1.818182e+02,    0.000000e+00
    3404,    1.525000e+02,   -1.745455e+02,    0.000000e+00
    3405,    1.362500e+02,   -1.963636e+02,    0.000000e+00
    3406,    1.525000e+02,   -1.890909e+02,    0.000000e+00
    3407,    1.362500e+02,   -2.109091e+02,    0.000000e+00
    3408,    1.525000e+02,   -2.036364e+02,    0.000000e+00
    3409,    1.362500e+02,   -2.254545e+02,    0.000000e+00
    3410,    1.525000e+02,   -2.181818e+02,    0.000000e+00
    3411,    1.525000e+02,   -2.327273e+02,    0.000000e+00
    3412,    1.687500e+02,   -9.454545e+01,    0.000000e+00
    3413,    1.850000e+02,   -8.727273e+01,    0.000000e+00
    3414,    1.687500e+02,   -1.090909e+02,    0.000000e+00
    3415,    1.850000e+02,   -1.018182e+02,    0.000000e+00
    3416,    1.687500e+02,   -1.236364e+02,    0.000000e+00
    3417,    1.850000e+02,   -1.163636e+02,    0.000000e+00
    3418,    1.687500e+02,   -1.381818e+02,    0.000000e+00
    3419,    1.850000e+02,   -1.309091e+02,    0.000000e+00
    3420,    1.687500e+02,   -1.527273e+02,    0.000000e+00
    3421,    1.850000e+02,   -1.454545e+02,    0.000000e+00
    3422,    1.687500e+02,   -1.672727e+02,    0.000000e+00
    3423,    1.850000e+02,   -1.600000e+02,    0.000000e+00
    3424,    1.687500e+02,   -1.818182e+02,    0.000000e+00
    3425,    1.850000e+02,   -1.745455e+02,    0.000000e+00
    3426,    1.687500e+02,   -1.963636e+02,    0.000000e+00
    3427,    1.850000e+02,   -1.890909e+02,    0.000000e+00
    3428,    1.687500e+02,   -2.109091e+02,    0.000000e+00
    3429,    1.850000e+02,   -2.036364e+02,    0.000000e+00
    3430,    1.687500e+02,   -2.254545e+02,    0.000000e+00
    3431,    1.850000e+02,   -2.181818e+02,    0.000000e+00
    3432,    1.850000e+02,   -2.327273e+02,    0.000000e+00
    3433,    2.012500e+02,   -9.454545e+01,    0.000000e+00
    3434,    2.175000e+02,   -8.727273e+01,    0.000000e+00
    3435,    2.012500e+02,   -1.090909e+02,    0.000000e+00
    3436,    2.175000e+02,   -1.018182e+02,    0.000000e+00
    3437,    2.012500e+02,   -1.236364e+02,    0.000000e+00
    3438,    2.175000e+02,   -1.163636e+02,    0.000000e+00
    3439,    2.012500e+02,   -1.381818e+02,    0.000000e+00
    3440,    2.175000e+02,   -1.309091e+02,    0.000000e+00
    3441,    2.012500e+02,   -1.527273e+02,    0.000000e+00
    3442,    2.175000e+02,   -1.454545e+02,    0.000000e+00
    3443,    2.012500e+02,   -1.672727e+02,    0.000000e+00
    3444,    2.175000e+02,   -1.600000e+02,    0.000000e+00
    3445,    2.012500e+02,   -1.818182e+02,    0.000000e+00
    3446,    2.175000e+02,   -1.745455e+02,    0.000000e+00
    3447,    2.012500e+02,   -1.963636e+02,    0.000000e+00
    3448,    2.175000e+02,   -1.890909e+02,    0.000000e+00
    3449,    2.012500e+02,   -2.109091e+02,    0.000000e+00
    3450,    2.175000e+02,   -2.036364e+02,    0.000000e+00
    3451,    2.012500e+02,   -2.254545e+02,    0.000000e+00
    3452,    2.175000e+02,   -2.181818e+02,    0.000000e+00
    3453,    2.175000e+02,   -2.327273e+02,    0.000000e+00
    3454,    2.337500e+02,   -9.454545e+01,    0.000000e+00
    3455,    2.337500e+02,   -1.090909e+02,    0.000000e+00
    3456,    2.337500e+02,   -1.236364e+02,    0.000000e+00
    3457,    2.337500e+02,   -1.381818e+02,    0.000000e+00
    3458,    2.337500e+02,   -1.527273e+02,    0.000000e+00
    3459,    2.337500e+02,   -1.672727e+02,    0.000000e+00
    3460,    2.337500e+02,   -1.818182e+02,    0.000000e+00
    3461,    2.337500e+02,   -1.963636e+02,    0.000000e+00
    3462,    2.337500e+02,   -2.109091e+02,    0.000000e+00
    3463,    2.337500e+02,   -2.254545e+02,    0.000000e+00
    3464,    2.321429e+02,   -2.400000e+02,   -2.500000e+02
    3465,    1.964286e+02,   -2.400000e+02,   -2.500000e+02
    3466,    1.607143e+02,   -2.400000e+02,   -2.500000e+02
    3467,    1.250000e+02,   -2.400000e+02,   -2.500000e+02
    3468,    8.928571e+01,   -2.400000e+02,   -2.500000e+02
    3469,    5.357143e+01,   -2.400000e+02,   -2.500000e+02
    3470,    1.785714e+01,   -2.400000e+02,   -2.500000e+02
    3471,    2.500000e+02,   -2.400000e+02,   -1.785714e+01
    3472,    2.500000e+02,   -2.400000e+02,   -5.357143e+01
    3473,    2.500000e+02,   -2.400000e+02,   -8.928571e+01
    3474,    2.500000e+02,   -2.400000e+02,   -1.250000e+02
    3475,    2.500000e+02,   -2.400000e+02,   -1.607143e+02
    3476,    2.500000e+02,   -2.400000e+02,   -1.964286e+02
    3477,    2.500000e+02,   -2.400000e+02,   -2.321429e+02
    3478,    9.760206e+01,   -2.400000e+02,   -1.543341e+02
    3479,    8.540588e+01,   -2.400000e+02,   -1.789494e+02
    3480,    1.180720e+02,   -2.400000e+02,   -1.793861e+02
    3481,    1.302681e+02,   -2.400000e+02,   -1.547708e+02
    3482,    1.004276e+02,   -2.400000e+02,   -1.142918e+02
    3483,    7.071053e+01,   -2.400000e+02,   -1.488811e+02
    3484,    1.273191e+02,   -2.400000e+02,   -1.197448e+02
    3485,    1.116150e+02,   -2.400000e+02,   -6.951226e+01
    3486,    7.862542e+01,   -2.400000e+02,   -1.065338e+02
    3487,    1.334172e+02,   -2.400000e+02,   -7.727023e+01
    3488,    1.480285e+02,   -2.400000e+02,   -1.315263e+02
    3489,    1.531481e+02,   -2.400000e+02,   -1.643074e+02
    3490,    1.709085e+02,   -2.400000e+02,   -1.410629e+02
    3491,    1.503476e+02,   -2.400000e+02,   -9.305481e+01
    3492,    1.710569e+02,   -2.400000e+02,   -1.048364e+02
    3493,    1.579265e+02,   -2.400000e+02,   -4.899771e+01
    3494,    1.748569e+02,   -2.400000e+02,   -6.478228e+01
    3495,    1.307885e+02,   -2.400000e+02,   -1.998614e+02
    3496,    1.163278e+02,   -2.400000e+02,   -2.135165e+02
    3497,    1.288036e+02,   -2.400000e+02,   -2.233927e+02
    3498,    1.432642e+02,   -2.400000e+02,   -2.097376e+02
    3499,    1.102947e+02,   -2.400000e+02,   -1.957137e+02
    3500,    1.385657e+02,   -2.400000e+02,   -1.835338e+02
    3501,    9.269632e+01,   -2.400000e+02,   -2.031114e+02
    3502,    9.872942e+01,   -2.400000e+02,   -2.209143e+02
    3503,    1.593816e+02,   -2.400000e+02,   -1.930583e+02
    3504,    1.739639e+02,   -2.400000e+02,   -1.738320e+02
    3505,    1.612948e+02,   -2.400000e+02,   -2.212397e+02
    3506,    1.774121e+02,   -2.400000e+02,   -2.045605e+02
    3507,    2.136385e+02,   -2.400000e+02,   -2.001332e+02
    3508,    1.945158e+02,   -2.400000e+02,   -1.864681e+02
    3509,    1.965348e+02,   -2.400000e+02,   -2.182256e+02
    3510,    2.118365e+02,   -2.400000e+02,   -1.664261e+02
    3511,    1.912846e+02,   -2.400000e+02,   -1.537900e+02
    3512,    2.104724e+02,   -2.400000e+02,   -1.318076e+02
    3513,    1.900963e+02,   -2.400000e+02,   -1.190805e+02
    3514,    2.107242e+02,   -2.400000e+02,   -9.570136e+01
    3515,    1.916849e+02,   -2.400000e+02,   -8.145717e+01
    3516,    1.954815e+02,   -2.400000e+02,   -4.128036e+01
    3517,    2.123095e+02,   -2.400000e+02,   -5.795525e+01
    3518,    5.720203e+01,   -2.400000e+02,   -1.916663e+02
    3519,    6.449247e+01,   -2.400000e+02,   -2.158284e+02
    3520,    2.315224e+02,   -2.400000e+02,   -1.810188e+02
    3521,    2.321161e+02,   -2.400000e+02,   -2.155430e+02
    3522,    2.303141e+02,   -2.400000e+02,   -1.461216e+02
    3523,    2.301583e+02,   -2.400000e+02,   -1.106861e+02
    3524,    2.305659e+02,   -2.400000e+02,   -7.430102e+01
    3525,    2.317436e+02,   -2.400000e+02,   -3.722566e+01
    3526,    7.751624e+01,   -2.400000e+02,   -2.339358e+02
    3527,    4.054766e+01,   -2.400000e+02,   -2.318926e+02
    3528,    1.104989e+02,   -2.400000e+02,   -2.369785e+02
    3529,    1.433047e+02,   -2.400000e+02,   -2.364142e+02
    3530,    1.787044e+02,   -2.400000e+02,   -2.348255e+02
    3531,    2.142590e+02,   -2.400000e+02,   -2.334001e+02
    3532,    2.154936e+02,   -2.400000e+02,   -1.936851e+01
    3533,    1.812379e+02,   -2.400000e+02,   -2.191185e+01
    3534,    1.454386e+02,   -2.400000e+02,   -2.708586e+01
    3535,    3.619901e+01,   -2.400000e+02,   -1.403574e+02
    3536,    3.451152e+01,   -2.400000e+02,   -1.772737e+02
    3537,    2.269051e+01,   -2.400000e+02,   -2.156426e+02
    3538,    2.500000e+02,   -8.727273e+01,   -2.500000e+02
    3539,    2.500000e+02,   -1.018182e+02,   -2.500000e+02
    3540,    2.500000e+02,   -1.163636e+02,   -2.500000e+02
    3541,    2.500000e+02,   -1.309091e+02,   -2.500000e+02
    3542,    2.500000e+02,   -1.454545e+02,   -2.500000e+02
    3543,    2.500000e+02,   -1.600000e+02,   -2.500000e+02
    3544,    2.500000e+02,   -1.745455e+02,   -2.500000e+02
    3545,    2.500000e+02,   -1.890909e+02,   -2.500000e+02
    3546,    2.500000e+02,   -2.036364e+02,   -2.500000e+02
    3547,    2.500000e+02,   -2.181818e+02,   -2.500000e+02
    3548,    2.500000e+02,   -2.327273e+02,   -2.500000e+02
    3549,    1.785714e+01,   -2.254545e+02,   -2.500000e+02
    3550,    3.571429e+01,   -2.327273e+02,   -2.500000e+02
    3551,    1.785714e+01,   -2.109091e+02,   -2.500000e+02
    3552,    3.571429e+01,   -2.181818e+02,   -2.500000e+02
    3553,    1.785714e+01,   -1.963636e+02,   -2.500000e+02
    3554,    3.571429e+01,   -2.036364e+02,   -2.500000e+02
    3555,    1.785714e+01,   -1.818182e+02,   -2.500000e+02
    3556,    3.571429e+01,   -1.890909e+02,   -2.500000e+02
    3557,    1.785714e+01,   -1.672727e+02,   -2.500000e+02
    3558,    3.571429e+01,   -1.745455e+02,   -2.500000e+02
    3559,    1.785714e+01,   -1.527273e+02,   -2.500000e+02
    3560,    3.571429e+01,   -1.600000e+02,   -2.500000e+02
    3561,    1.785714e+01,   -1.381818e+02,   -2.500000e+02
    3562,    3.571429e+01,   -1.454545e+02,   -2.500000e+02
    3563,    1.785714e+01,   -1.236364e+02,   -2.500000e+02
    3564,    3.571429e+01,   -1.309091e+02,   -2.500000e+02
    3565,    1.785714e+01,   -1.090909e+02,   -2.500000e+02
    3566,    3.571429e+01,   -1.163636e+02,   -2.500000e+02
    3567,    1.785714e+01,   -9.454545e+01,   -2.500000e+02
    3568,    3.571429e+01,   -1.018182e+02,   -2.500000e+02
    3569,    3.571429e+01,   -8.727273e+01,   -2.500000e+02
    3570,    5.357143e+01,   -2.254545e+02,   -2.500000e+02
    3571,    7.142857e+01,   -2.327273e+02,   -2.500000e+02
    3572,    5.357143e+01,   -2.109091e+02,   -2.500000e+02
    3573,    7.142857e+01,   -2.181818e+02,   -2.500000e+02
    3574,    5.357143e+01,   -1.963636e+02,   -2.500000e+02
    3575,    7.142857e+01,   -2.036364e+02,   -2.500000e+02
    3576,    5.357143e+01,   -1.818182e+02,   -2.500000e+02
    3577,    7.142857e+01,   -1.890909e+02,   -2.500000e+02
    3578,    5.357143e+01,   -1.672727e+02,   -2.500000e+02
    3579,    7.142857e+01,   -1.745455e+02,   -2.500000e+02
    3580,    5.357143e+01,   -1.527273e+02,   -2.500000e+02
    3581,    7.142857e+01,   -1.600000e+02,   -2.500000e+02
    3582,    5.357143e+01,   -1.381818e+02,   -2.500000e+02
    3583,    7.142857e+01,   -1.454545e+02,   -2.500000e+02
    3584,    5.357143e+01,   -1.236364e+02,   -2.500000e+02
    3585,    7.142857e+01,   -1.309091e+02,   -2.500000e+02
    3586,    5.357143e+01,   -1.090909e+02,   -2.500000e+02
    3587,    7.142857e+01,   -1.163636e+02,   -2.500000e+02
    3588,    5.357143e+01,   -9.454545e+01,   -2.500000e+02
    3589,    7.142857e+01,   -1.018182e+02,   -2.500000e+02
    3590,    7.142857e+01,   -8.727273e+01,   -2.500000e+02
    3591,    8.928571e+01,   -2.254545e+02,   -2.500000e+02
    3592,    1.071429e+02,   -2.327273e+02,   -2.500000e+02
    3593,    8.928571e+01,   -2.109091e+02,   -2.500000e+02
    3594,    1.071429e+02,   -2.181818e+02,   -2.500000e+02
    3595,    8.928571e+01,   -1.963636e+02,   -2.500000e+02
    3596,    1.071429e+02,   -2.036364e+02,   -2.500000e+02
    3597,    8.928571e+01,   -1.818182e+02,   -2.500000e+02
    3598,    1.071429e+02,   -1.890909e+02,   -2.500000e+02
    3599,    8.928571e+01,   -1.672727e+02,   -2.500000e+02
    3600,    1.071429e+02,   -1.745455e+02,   -2.500000e+02
    3601,    8.928571e+01,   -1.527273e+02,   -2.500000e+02
    3602,    1.071429e+02,   -1.600000e+02,   -2.500000e+02
    3603,    8.928571e+01,   -1.381818e+02,   -2.500000e+02
    3604,    1.071429e+02,   -1.454545e+02,   -2.500000e+02
    3605,    8.928571e+01,   -1.236364e+02,   -2.500000e+02
    3606,    1.071429e+02,   -1.309091e+02,   -2.500000e+02
    3607,    8.928571e+01,   -1.090909e+02,   -2.500000e+02
    3608,    1.071429e+02,   -1.163636e+02,   -2.500000e+02
    3609,    8.928571e+01,   -9.454545e+01,   -2.500000e+02
    3610,    1.071429e+02,   -1.018182e+02,   -2.500000e+02
    3611,    1.071429e+02,   -8.727273e+01,   -2.500000e+02
    3612,    1.250000e+02,   -2.254545e+02,   -2.500000e+02
    3613,    1.428571e+02,   -2.327273e+02,   -2.500000e+02
    3614,    1.250000e+02,   -2.109091e+02,   -2.500000e+02
    3615,    1.428571e+02,   -2.181818e+02,   -2.500000e+02
    3616,    1.250000e+02,   -1.963636e+02,   -2.500000e+02
    3617,    1.428571e+02,   -2.036364e+02,   -2.500000e+02
    3618,    1.250000e+02,   -1.818182e+02,   -2.500000e+02
    3619,    1.428571e+02,   -1.890909e+02,   -2.500000e+02
    3620,    1.250000e+02,   -1.672727e+02,   -2.500000e+02
    3621,    1.428571e+02,   -1.745455e+02,   -2.500000e+02
    3622,    1.250000e+02,   -1.527273e+02,   -2.500000e+02
    3623,    1.428571e+02,   -1.600000e+02,   -2.500000e+02
    3624,    1.250000e+02,   -1.381818e+02,   -2.500000e+02
    3625,    1.428571e+02,   -1.454545e+02,   -2.500000e+02
    3626,    1.250000e+02,   -1.236364e+02,   -2.500000e+02
    3627,    1.428571e+02,   -1.309091e+02,   -2.500000e+02
    3628,    1.250000e+02,   -1.090909e+02,   -2.500000e+02
    3629,    1.428571e+02,   -1.163636e+02,   -2.500000e+02
    3630,    1.250000e+02,   -9.454545e+01,   -2.500000e+02
    3631,    1.428571e+02,   -1.018182e+02,   -2.500000e+02
    3632,    1.428571e+02,   -8.727273e+01,   -2.500000e+02
    3633,    1.607143e+02,   -2.254545e+02,   -2.500000e+02
    3634,    1.785714e+02,   -2.327273e+02,   -2.500000e+02
    3635,    1.607143e+02,   -2.109091e+02,   -2.500000e+02
    3636,    1.785714e+02,   -2.181818e+02,   -2.500000e+02
    3637,    1.607143e+02,   -1.963636e+02,   -2.500000e+02
    3638,    1.785714e+02,   -2.036364e+02,   -2.500000e+02
    3639,    1.607143e+02,   -1.818182e+02,   -2.500000e+02
    3640,    1.785714e+02,   -1.890909e+02,   -2.500000e+02
    3641,    1.607143e+02,   -1.672727e+02,   -2.500000e+02
    3642,    1.785714e+02,   -1.745455e+02,   -2.500000e+02
    3643,    1.607143e+02,   -1.527273e+02,   -2.500000e+02
    3644,    1.785714e+02,   -1.600000e+02,   -2.500000e+02
    3645,    1.607143e+02,   -1.381818e+02,   -2.500000e+02
    3646,    1.785714e+02,   -1.454545e+02,   -2.500000e+02
    3647,    1.607143e+02,   -1.236364e+02,   -2.500000e+02
    3648,    1.785714e+02,   -1.309091e+02,   -2.500000e+02
    3649,    1.607143e+02,   -1.090909e+02,   -2.500000e+02
    3650,    1.785714e+02,   -1.163636e+02,   -2.500000e+02
    3651,    1.607143e+02,   -9.454545e+01,   -2.500000e+02
    3652,    1.785714e+02,   -1.018182e+02,   -2.500000e+02
    3653,    1.785714e+02,   -8.727273e+01,   -2.500000e+02
    3654,    1.964286e+02,   -2.254545e+02,   -2.500000e+02
    3655,    2.142857e+02,   -2.327273e+02,   -2.500000e+02
    3656,    1.964286e+02,   -2.109091e+02,   -2.500000e+02
    3657,    2.142857e+02,   -2.181818e+02,   -2.500000e+02
    3658,    1.964286e+02,   -1.963636e+02,   -2.500000e+02
    3659,    2.142857e+02,   -2.036364e+02,   -2.500000e+02
    3660,    1.964286e+02,   -1.818182e+02,   -2.500000e+02
    3661,    2.142857e+02,   -1.890909e+02,   -2.500000e+02
    3662,    1.964286e+02,   -1.672727e+02,   -2.500000e+02
    3663,    2.142857e+02,   -1.745455e+02,   -2.500000e+02
    3664,    1.964286e+02,   -1.527273e+02,   -2.500000e+02
    3665,    2.142857e+02,   -1.600000e+02,   -2.500000e+02
    3666,    1.964286e+02,   -1.381818e+02,   -2.500000e+02
    3667,    2.142857e+02,   -1.454545e+02,   -2.500000e+02
    3668,    1.964286e+02,   -1.236364e+02,   -2.500000e+02
    3669,    2.142857e+02,   -1.309091e+02,   -2.500000e+02
    3670,    1.964286e+02,   -1.090909e+02,   -2.500000e+02
    3671,    2.142857e+02,   -1.163636e+02,   -2.500000e+02
    3672,    1.964286e+02,   -9.454545e+01,   -2.500000e+02
    3673,    2.142857e+02,   -1.018182e+02,   -2.500000e+02
    3674,    2.142857e+02,   -8.727273e+01,   -2.500000e+02
    3675,    2.321429e+02,   -2.254545e+02,   -2.500000e+02
    3676,    2.321429e+02,   -2.109091e+02,   -2.500000e+02
    3677,    2.321429e+02,   -1.963636e+02,   -2.500000e+02
    3678,    2.321429e+02,   -1.818182e+02,   -2.500000e+02
    3679,    2.321429e+02,   -1.672727e+02,   -2.500000e+02
    3680,    2.321429e+02,   -1.527273e+02,   -2.500000e+02
    3681,    2.321429e+02,   -1.381818e+02,   -2.500000e+02
    3682,    2.321429e+02,   -1.236364e+02,   -2.500000e+02
    3683,    2.321429e+02,   -1.090909e+02,   -2.500000e+02
    3684,    2.321429e+02,   -9.454545e+01,   -2.500000e+02
    3685,    2.500000e+02,   -9.454545e+01,   -1.785714e+01
    3686,    2.500000e+02,   -8.727273e+01,   -3.571429e+01
    3687,    2.500000e+02,   -1.090909e+02,   -1.785714e+01
    3688,    2.500000e+02,   -1.018182e+02,   -3.571429e+01
    3689,    2.500000e+02,   -1.236364e+02,   -1.785714e+01
    3690,    2.500000e+02,   -1.163636e+02,   -3.571429e+01
    3691,    2.500000e+02,   -1.381818e+02,   -1.785714e+01
    3692,    2.500000e+02,   -1.309091e+02,   -3.571429e+01
    3693,    2.500000e+02,   -1.527273e+02,   -1.785714e+01
    3694,    2.500000e+02,   -1.454545e+02,   -3.571429e+01
    3695,    2.500000e+02,   -1.672727e+02,   -1.785714e+01
    3696,    2.500000e+02,   -1.600000e+02,   -3.571429e+01
    3697,    2.500000e+02,   -1.818182e+02,   -1.785714e+01
    3698,    2.500000e+02,   -1.745455e+02,   -3.571429e+01
    3699,    2.500000e+02,   -1.963636e+02,   -1.785714e+01
    3700,    2.500000e+02,   -1.890909e+02,   -3.571429e+01
    3701,    2.500000e+02,   -2.109091e+02,   -1.785714e+01
    3702,    2.500000e+02,   -2.036364e+02,   -3.571429e+01
    3703,    2.500000e+02,   -2.254545e+02,   -1.785714e+01
    3704,    2.500000e+02,   -2.181818e+02,   -3.571429e+01
    3705,    2.500000e+02,   -2.327273e+02,   -3.571429e+01
    3706,    2.500000e+02,   -9.454545e+01,   -5.357143e+01
    3707,    2.500000e+02,   -8.727273e+01,   -7.142857e+01
    3708,    2.500000e+02,   -1.090909e+02,   -5.357143e+01
    3709,    2.500000e+02,   -1.018182e+02,   -7.142857e+01
    3710,    2.500000e+02,   -1.236364e+02,   -5.357143e+01
    3711,    2.500000e+02,   -1.163636e+02,   -7.142857e+01
    3712,    2.500000e+02,   -1.381818e+02,   -5.357143e+01
    3713,    2.500000e+02,   -1.309091e+02,   -7.142857e+01
    3714,    2.500000e+02,   -1.527273e+02,   -5.357143e+01
    3715,    2.500000e+02,   -1.454545e+02,   -7.142857e+01
    3716,    2.500000e+02,   -1.672727e+02,   -5.357143e+01
    3717,    2.500000e+02,   -1.600000e+02,   -7.142857e+01
    3718,    2.500000e+02,   -1.818182e+02,   -5.357143e+01
    3719,    2.500000e+02,   -1.745455e+02,   -7.142857e+01
    3720,    2.500000e+02,   -1.963636e+02,   -5.357143e+01
    3721,    2.500000e+02,   -1.890909e+02,   -7.142857e+01
    3722,    2.500000e+02,   -2.109091e+02,   -5.357143e+01
    3723,    2.500000e+02,   -2.036364e+02,   -7.142857e+01
    3724,    2.500000e+02,   -2.254545e+02,   -5.357143e+01
    3725,    2.500000e+02,   -2.181818e+02,   -7.142857e+01
    3726,    2.500000e+02,   -2.327273e+02,   -7.142857e+01
    3727,    2.500000e+02,   -9.454545e+01,   -8.928571e+01
    3728,    2.500000e+02,   -8.727273e+01,   -1.071429e+02
    3729,    2.500000e+02,   -1.090909e+02,   -8.928571e+01
    3730,    2.500000e+02,   -1.018182e+02,   -1.071429e+02
    3731,    2.500000e+02,   -1.236364e+02,   -8.928571e+01
    3732,    2.500000e+02,   -1.163636e+02,   -1.071429e+02
    3733,    2.500000e+02,   -1.381818e+02,   -8.928571e+01
    3734,    2.500000e+02,   -1.309091e+02,   -1.071429e+02
    3735,    2.500000e+02,   -1.527273e+02,   -8.928571e+01
    3736,    2.500000e+02,   -1.454545e+02,   -1.071429e+02
    3737,    2.500000e+02,   -1.672727e+02,   -8.928571e+01
    3738,    2.500000e+02,   -1.600000e+02,   -1.071429e+02
    3739,    2.500000e+02,   -1.818182e+02,   -8.928571e+01
    3740,    2.500000e+02,   -1.745455e+02,   -1.071429e+02
    3741,    2.500000e+02,   -1.963636e+02,   -8.928571e+01
    3742,    2.500000e+02,   -1.890909e+02,   -1.071429e+02
    3743,    2.500000e+02,   -2.109091e+02,   -8.928571e+01
    3744,    2.500000e+02,   -2.036364e+02,   -1.071429e+02
    3745,    2.500000e+02,   -2.254545e+02,   -8.928571e+01
    3746,    2.500000e+02,   -2.181818e+02,   -1.071429e+02
    3747,    2.500000e+02,   -2.327273e+02,   -1.071429e+02
    3748,    2.500000e+02,   -9.454545e+01,   -1.250000e+02
    3749,    2.500000e+02,   -8.727273e+01,   -1.428571e+02
    3750,    2.500000e+02,   -1.090909e+02,   -1.250000e+02
    3751,    2.500000e+02,   -1.018182e+02,   -1.428571e+02
    3752,    2.500000e+02,   -1.236364e+02,   -1.250000e+02
    3753,    2.500000e+02,   -1.163636e+02,   -1.428571e+02
    3754,    2.500000e+02,   -1.381818e+02,   -1.250000e+02
    3755,    2.500000e+02,   -1.309091e+02,   -1.428571e+02
    3756,    2.500000e+02,   -1.527273e+02,   -1.250000e+02
    3757,    2.500000e+02,   -1.454545e+02,   -1.428571e+02
    3758,    2.500000e+02,   -1.672727e+02,   -1.250000e+02
    3759,    2.500000e+02,   -1.600000e+02,   -1.428571e+02
    3760,    2.500000e+02,   -1.818182e+02,   -1.250000e+02
    3761,    2.500000e+02,   -1.745455e+02,   -1.428571e+02
    3762,    2.500000e+02,   -1.963636e+02,   -1.250000e+02
    3763,    2.500000e+02,   -1.890909e+02,   -1.428571e+02
    3764,    2.500000e+02,   -2.109091e+02,   -1.250000e+02
    3765,    2.500000e+02,   -2.036364e+02,   -1.428571e+02
    3766,    2.500000e+02,   -2.254545e+02,   -1.250000e+02
    3767,    2.500000e+02,   -2.181818e+02,   -1.428571e+02
    3768,    2.500000e+02,   -2.327273e+02,   -1.428571e+02
    3769,    2.500000e+02,   -9.454545e+01,   -1.607143e+02
    3770,    2.500000e+02,   -8.727273e+01,   -1.785714e+02
    3771,    2.500000e+02,   -1.090909e+02,   -1.607143e+02
    3772,    2.500000e+02,   -1.018182e+02,   -1.785714e+02
    3773,    2.500000e+02,   -1.236364e+02,   -1.607143e+02
    3774,    2.500000e+02,   -1.163636e+02,   -1.785714e+02
    3775,    2.500000e+02,   -1.381818e+02,   -1.607143e+02
    3776,    2.500000e+02,   -1.309091e+02,   -1.785714e+02
    3777,    2.500000e+02,   -1.527273e+02,   -1.607143e+02
    3778,    2.500000e+02,   -1.454545e+02,   -1.785714e+02
    3779,    2.500000e+02,   -1.672727e+02,   -1.607143e+02
    3780,    2.500000e+02,   -1.600000e+02,   -1.785714e+02
    3781,    2.500000e+02,   -1.818182e+02,   -1.607143e+02
    3782,    2.500000e+02,   -1.745455e+02,   -1.785714e+02
    3783,    2.500000e+02,   -1.963636e+02,   -1.607143e+02
    3784,    2.500000e+02,   -1.890909e+02,   -1.785714e+02
    3785,    2.500000e+02,   -2.109091e+02,   -1.607143e+02
    3786,    2.500000e+02,   -2.036364e+02,   -1.785714e+02
    3787,    2.500000e+02,   -2.254545e+02,   -1.607143e+02
    3788,    2.500000e+02,   -2.181818e+02,   -1.785714e+02
    3789,    2.500000e+02,   -2.327273e+02,   -1.785714e+02
    3790,    2.500000e+02,   -9.454545e+01,   -1.964286e+02
    3791,    2.500000e+02,   -8.727273e+01,   -2.142857e+02
    3792,    2.500000e+02,   -1.090909e+02,   -1.964286e+02
    3793,    2.500000e+02,   -1.018182e+02,   -2.142857e+02
    3794,    2.500000e+02,   -1.236364e+02,   -1.964286e+02
    3795,    2.500000e+02,   -1.163636e+02,   -2.142857e+02
    3796,    2.500000e+02,   -1.381818e+02,   -1.964286e+02
    3797,    2.500000e+02,   -1.309091e+02,   -2.142857e+02
    3798,    2.500000e+02,   -1.527273e+02,   -1.964286e+02
    3799,    2.500000e+02,   -1.454545e+02,   -2.142857e+02
    3800,    2.500000e+02,   -1.672727e+02,   -1.964286e+02
    3801,    2.500000e+02,   -1.600000e+02,   -2.142857e+02
    3802,    2.500000e+02,   -1.818182e+02,   -1.964286e+02
    3803,    2.500000e+02,   -1.745455e+02,   -2.142857e+02
    3804,    2.500000e+02,   -1.963636e+02,   -1.964286e+02
    3805,    2.500000e+02,   -1.890909e+02,   -2.142857e+02
    3806,    2.500000e+02,   -2.109091e+02,   -1.964286e+02
    3807,    2.500000e+02,   -2.036364e+02,   -2.142857e+02
    3808,    2.500000e+02,   -2.254545e+02,   -1.964286e+02
    3809,    2.500000e+02,   -2.181818e+02,   -2.142857e+02
    3810,    2.500000e+02,   -2.327273e+02,   -2.142857e+02
    3811,    2.500000e+02,   -9.454545e+01,   -2.321429e+02
    3812,    2.500000e+02,   -1.090909e+02,   -2.321429e+02
    3813,    2.500000e+02,   -1.236364e+02,   -2.321429e+02
    3814,    2.500000e+02,   -1.381818e+02,   -2.321429e+02
    3815,    2.500000e+02,   -1.527273e+02,   -2.321429e+02
    3816,    2.500000e+02,   -1.672727e+02,   -2.321429e+02
    3817,    2.500000e+02,   -1.818182e+02,   -2.321429e+02
    3818,    2.500000e+02,   -1.963636e+02,   -2.321429e+02
    3819,    2.500000e+02,   -2.109091e+02,   -2.321429e+02
    3820,    2.500000e+02,   -2.254545e+02,   -2.321429e+02
    3821,    9.760206e+01,   -9.454545e+01,   -1.543341e+02
    3822,    1.302681e+02,   -9.454545e+01,   -1.547708e+02
    3823,    1.180720e+02,   -9.454545e+01,   -1.793861e+02
    3824,    8.540588e+01,   -9.454545e+01,   -1.789494e+02
    3825,    6.902303e+01,   -8.727273e+01,   -1.695474e+02
    3826,    1.261811e+02,   -8.727273e+01,   -1.391208e+02
    3827,    1.343552e+02,   -8.727273e+01,   -1.704209e+02
    3828,    1.017887e+02,   -8.727273e+01,   -1.883513e+02
    3829,    1.004276e+02,   -9.454545e+01,   -1.142918e+02
    3830,    1.273191e+02,   -9.454545e+01,   -1.197448e+02
    3831,    7.071053e+01,   -9.454545e+01,   -1.488811e+02
    3832,    7.239803e+01,   -8.727273e+01,   -1.282148e+02
    3833,    1.284572e+02,   -8.727273e+01,   -1.003688e+02
    3834,    1.116150e+02,   -9.454545e+01,   -6.951226e+01
    3835,    1.334172e+02,   -9.454545e+01,   -7.727023e+01
    3836,    7.862542e+01,   -9.454545e+01,   -1.065338e+02
    3837,    1.383771e+02,   -8.727273e+01,   -5.417171e+01
    3838,    1.480285e+02,   -9.454545e+01,   -1.315263e+02
    3839,    1.709085e+02,   -9.454545e+01,   -1.410629e+02
    3840,    1.531481e+02,   -9.454545e+01,   -1.643074e+02
    3841,    1.698759e+02,   -8.727273e+01,   -1.239318e+02
    3842,    1.719410e+02,   -8.727273e+01,   -1.581940e+02
    3843,    1.503476e+02,   -9.454545e+01,   -9.305481e+01
    3844,    1.710569e+02,   -9.454545e+01,   -1.048364e+02
    3845,    1.722379e+02,   -8.727273e+01,   -8.574087e+01
    3846,    1.579265e+02,   -9.454545e+01,   -4.899771e+01
    3847,    1.748569e+02,   -9.454545e+01,   -6.478228e+01
    3848,    1.774758e+02,   -8.727273e+01,   -4.382370e+01
    3849,    1.307885e+02,   -9.454545e+01,   -1.998614e+02
    3850,    1.432642e+02,   -9.454545e+01,   -2.097376e+02
    3851,    1.288036e+02,   -9.454545e+01,   -2.233927e+02
    3852,    1.163278e+02,   -9.454545e+01,   -2.135165e+02
    3853,    1.188007e+02,   -8.727273e+01,   -2.030760e+02
    3854,    1.427763e+02,   -8.727273e+01,   -1.966467e+02
    3855,    1.437522e+02,   -8.727273e+01,   -2.228285e+02
    3856,    1.138549e+02,   -8.727273e+01,   -2.239570e+02
    3857,    1.385657e+02,   -9.454545e+01,   -1.835338e+02
    3858,    1.102947e+02,   -9.454545e+01,   -1.957137e+02
    3859,    9.269632e+01,   -9.454545e+01,   -2.031114e+02
    3860,    9.872942e+01,   -9.454545e+01,   -2.209143e+02
    3861,    8.360391e+01,   -8.727273e+01,   -2.178716e+02
    3862,    1.739639e+02,   -9.454545e+01,   -1.738320e+02
    3863,    1.593816e+02,   -9.454545e+01,   -1.930583e+02
    3864,    1.759869e+02,   -8.727273e+01,   -1.894699e+02
    3865,    1.612948e+02,   -9.454545e+01,   -2.212397e+02
    3866,    1.774121e+02,   -9.454545e+01,   -2.045605e+02
    3867,    1.788374e+02,   -8.727273e+01,   -2.196510e+02
    3868,    2.136385e+02,   -9.454545e+01,   -2.001332e+02
    3869,    1.965348e+02,   -9.454545e+01,   -2.182256e+02
    3870,    1.945158e+02,   -9.454545e+01,   -1.864681e+02
    3871,    2.130447e+02,   -8.727273e+01,   -1.834662e+02
    3872,    2.142322e+02,   -8.727273e+01,   -2.168002e+02
    3873,    2.118365e+02,   -9.454545e+01,   -1.664261e+02
    3874,    1.912846e+02,   -9.454545e+01,   -1.537900e+02
    3875,    2.106282e+02,   -8.727273e+01,   -1.493860e+02
    3876,    2.104724e+02,   -9.454545e+01,   -1.318076e+02
    3877,    1.900963e+02,   -9.454545e+01,   -1.190805e+02
    3878,    2.103167e+02,   -8.727273e+01,   -1.142292e+02
    3879,    2.107242e+02,   -9.454545e+01,   -9.570136e+01
    3880,    1.916849e+02,   -9.454545e+01,   -8.145717e+01
    3881,    2.111318e+02,   -8.727273e+01,   -7.717347e+01
    3882,    1.954815e+02,   -9.454545e+01,   -4.128036e+01
    3883,    2.123095e+02,   -9.454545e+01,   -5.795525e+01
    3884,    2.134872e+02,   -8.727273e+01,   -3.873703e+01
    3885,    5.720203e+01,   -9.454545e+01,   -1.916663e+02
    3886,    6.449247e+01,   -9.454545e+01,   -2.158284e+02
    3887,    4.538103e+01,   -8.727273e+01,   -2.137852e+02
    3888,    2.321161e+02,   -9.454545e+01,   -2.155430e+02
    3889,    2.315224e+02,   -9.454545e+01,   -1.810188e+02
    3890,    2.303141e+02,   -9.454545e+01,   -1.461216e+02
    3891,    2.301583e+02,   -9.454545e+01,   -1.106861e+02
    3892,    2.305659e+02,   -9.454545e+01,   -7.430102e+01
    3893,    2.317436e+02,   -9.454545e+01,   -3.722566e+01
    3894,    4.054766e+01,   -9.454545e+01,   -2.318926e+02
    3895,    7.751624e+01,   -9.454545e+01,   -2.339358e+02
    3896,    1.104989e+02,   -9.454545e+01,   -2.369785e+02
    3897,    1.433047e+02,   -9.454545e+01,   -2.364142e+02
    3898,    1.787044e+02,   -9.454545e+01,   -2.348255e+02
    3899,    2.142590e+02,   -9.454545e+01,   -2.334001e+02
    3900,    2.154936e+02,   -9.454545e+01,   -1.936851e+01
    3901,    1.812379e+02,   -9.454545e+01,   -2.191185e+01
    3902,    1.454386e+02,   -9.454545e+01,   -2.708586e+01
    3903,    3.619901e+01,   -9.454545e+01,   -1.403574e+02
    3904,    3.451152e+01,   -9.454545e+01,   -1.772737e+02
    3905,    2.269051e+01,   -9.454545e+01,   -2.156426e+02
    3906,    9.760206e+01,   -1.090909e+02,   -1.543341e+02
    3907,    1.302681e+02,   -1.090909e+02,   -1.547708e+02
    3908,    1.180720e+02,   -1.090909e+02,   -1.793861e+02
    3909,    8.540588e+01,   -1.090909e+02,   -1.789494e+02
    3910,    6.902303e+01,   -1.018182e+02,   -1.695474e+02
    3911,    1.261811e+02,   -1.018182e+02,   -1.391208e+02
    3912,    1.343552e+02,   -1.018182e+02,   -1.704209e+02
    3913,    1.017887e+02,   -1.018182e+02,   -1.883513e+02
    3914,    1.004276e+02,   -1.090909e+02,   -1.142918e+02
    3915,    1.273191e+02,   -1.090909e+02,   -1.197448e+02
    3916,    7.071053e+01,   -1.090909e+02,   -1.488811e+02
    3917,    7.239803e+01,   -1.018182e+02,   -1.282148e+02
    3918,    1.284572e+02,   -1.018182e+02,   -1.003688e+02
    3919,    1.116150e+02,   -1.090909e+02,   -6.951226e+01
    3920,    1.334172e+02,   -1.090909e+02,   -7.727023e+01
    3921,    7.862542e+01,   -1.090909e+02,   -1.065338e+02
    3922,    1.383771e+02,   -1.018182e+02,   -5.417171e+01
    3923,    1.480285e+02,   -1.090909e+02,   -1.315263e+02
    3924,    1.709085e+02,   -1.090909e+02,   -1.410629e+02
    3925,    1.531481e+02,   -1.090909e+02,   -1.643074e+02
    3926,    1.698759e+02,   -1.018182e+02,   -1.239318e+02
    3927,    1.719410e+02,   -1.018182e+02,   -1.581940e+02
    3928,    1.503476e+02,   -1.090909e+02,   -9.305481e+01
    3929,    1.710569e+02,   -1.090909e+02,   -1.048364e+02
    3930,    1.722379e+02,   -1.018182e+02,   -8.574087e+01
    3931,    1.579265e+02,   -1.090909e+02,   -4.899771e+01
    3932,    1.748569e+02,   -1.090909e+02,   -6.478228e+01
    3933,    1.774758e+02,   -1.018182e+02,   -4.382370e+01
    3934,    1.307885e+02,   -1.090909e+02,   -1.998614e+02
    3935,    1.432642e+02,   -1.090909e+02,   -2.097376e+02
    3936,    1.288036e+02,   -1.090909e+02,   -2.233927e+02
    3937,    1.163278e+02,   -1.090909e+02,   -2.135165e+02
    3938,    1.188007e+02,   -1.018182e+02,   -2.030760e+02
    3939,    1.427763e+02,   -1.018182e+02,   -1.966467e+02
    3940,    1.437522e+02,   -1.018182e+02,   -2.228285e+02
    3941,    1.138549e+02,   -1.018182e+02,   -2.239570e+02
    3942,    1.385657e+02,   -1.090909e+02,   -1.835338e+02
    3943,    1.102947e+02,   -1.090909e+02,   -1.957137e+02
    3944,    9.269632e+01,   -1.090909e+02,   -2.031114e+02
    3945,    9.872942e+01,   -1.090909e+02,   -2.209143e+02
    3946,    8.360391e+01,   -1.018182e+02,   -2.178716e+02
    3947,    1.739639e+02,   -1.090909e+02,   -1.738320e+02
    3948,    1.593816e+02,   -1.090909e+02,   -1.930583e+02
    3949,    1.759869e+02,   -1.018182e+02,   -1.894699e+02
    3950,    1.612948e+02,   -1.090909e+02,   -2.212397e+02
    3951,    1.774121e+02,   -1.090909e+02,   -2.045605e+02
    3952,    1.788374e+02,   -1.018182e+02,   -2.196510e+02
    3953,    2.136385e+02,   -1.090909e+02,   -2.001332e+02
    3954,    1.965348e+02,   -1.090909e+02,   -2.182256e+02
    3955,    1.945158e+02,   -1.090909e+02,   -1.864681e+02
    3956,    2.130447e+02,   -1.018182e+02,   -1.834662e+02
    3957,    2.142322e+02,   -1.018182e+02,   -2.168002e+02
    3958,    2.118365e+02,   -1.090909e+02,   -1.664261e+02
    3959,    1.912846e+02,   -1.090909e+02,   -1.537900e+02
    3960,    2.106282e+02,   -1.018182e+02,   -1.493860e+02
    3961,    2.104724e+02,   -1.090909e+02,   -1.318076e+02
    3962,    1.900963e+02,   -1.090909e+02,   -1.190805e+02
    3963,    2.103167e+02,   -1.018182e+02,   -1.142292e+02
    3964,    2.107242e+02,   -1.090909e+02,   -9.570136e+01
    3965,    1.916849e+02,   -1.090909e+02,   -8.145717e+01
    3966,    2.111318e+02,   -1.018182e+02,   -7.717347e+01
    3967,    1.954815e+02,   -1.090909e+02,   -4.128036e+01
    3968,    2.123095e+02,   -1.090909e+02,   -5.795525e+01
    3969,    2.134872e+02,   -1.018182e+02,   -3.873703e+01
    3970,    5.720203e+01,   -1.090909e+02,   -1.916663e+02
    3971,    6.449247e+01,   -1.090909e+02,   -2.158284e+02
    3972,    4.538103e+01,   -1.018182e+02,   -2.137852e+02
    3973,    2.321161e+02,   -1.090909e+02,   -2.155430e+02
    3974,    2.315224e+02,   -1.090909e+02,   -1.810188e+02
    3975,    2.303141e+02,   -1.090909e+02,   -1.461216e+02
    3976,    2.301583e+02,   -1.090909e+02,   -1.106861e+02
    3977,    2.305659e+02,   -1.090909e+02,   -7.430102e+01
    3978,    2.317436e+02,   -1.090909e+02,   -3.722566e+01
    3979,    4.054766e+01,   -1.090909e+02,   -2.318926e+02
    3980,    7.751624e+01,   -1.090909e+02,   -2.339358e+02
    3981,    1.104989e+02,   -1.090909e+02,   -2.369785e+02
    3982,    1.433047e+02,   -1.090909e+02,   -2.364142e+02
    3983,    1.787044e+02,   -1.090909e+02,   -2.348255e+02
    3984,    2.142590e+02,   -1.090909e+02,   -2.334001e+02
    3985,    2.154936e+02,   -1.090909e+02,   -1.936851e+01
    3986,    1.812379e+02,   -1.090909e+02,   -2.191185e+01
    3987,    1.454386e+02,   -1.090909e+02,   -2.708586e+01
    3988,    3.619901e+01,   -1.090909e+02,   -1.403574e+02
    3989,    3.451152e+01,   -1.090909e+02,   -1.772737e+02
    3990,    2.269051e+01,   -1.090909e+02,   -2.156426e+02
    3991,    9.760206e+01,   -1.236364e+02,   -1.543341e+02
    3992,    1.302681e+02,   -1.236364e+02,   -1.547708e+02
    3993,    1.180720e+02,   -1.236364e+02,   -1.793861e+02
    3994,    8.540588e+01,   -1.236364e+02,   -1.789494e+02
    3995,    6.902303e+01,   -1.163636e+02,   -1.695474e+02
    3996,    1.261811e+02,   -1.163636e+02,   -1.391208e+02
    3997,    1.343552e+02,   -1.163636e+02,   -1.704209e+02
    3998,    1.017887e+02,   -1.163636e+02,   -1.883513e+02
    3999,    1.004276e+02,   -1.236364e+02,   -1.142918e+02
    4000,    1.273191e+02,   -1.236364e+02,   -1.197448e+02
    4001,    7.071053e+01,   -1.236364e+02,   -1.488811e+02
    4002,    7.239803e+01,   -1.163636e+02,   -1.282148e+02
    4003,    1.284572e+02,   -1.163636e+02,   -1.003688e+02
    4004,    1.116150e+02,   -1.236364e+02,   -6.951226e+01
    4005,    1.334172e+02,   -1.236364e+02,   -7.727023e+01
    4006,    7.862542e+01,   -1.236364e+02,   -1.065338e+02
    4007,    1.383771e+02,   -1.163636e+02,   -5.417171e+01
    4008,    1.480285e+02,   -1.236364e+02,   -1.315263e+02
    4009,    1.709085e+02,   -1.236364e+02,   -1.410629e+02
    4010,    1.531481e+02,   -1.236364e+02,   -1.643074e+02
    4011,    1.698759e+02,   -1.163636e+02,   -1.239318e+02
    4012,    1.719410e+02,   -1.163636e+02,   -1.581940e+02
    4013,    1.503476e+02,   -1.236364e+02,   -9.305481e+01
    4014,    1.710569e+02,   -1.236364e+02,   -1.048364e+02
    4015,    1.722379e+02,   -1.163636e+02,   -8.574087e+01
    4016,    1.579265e+02,   -1.236364e+02,   -4.899771e+01
    4017,    1.748569e+02,   -1.236364e+02,   -6.478228e+01
    4018,    1.774758e+02,   -1.163636e+02,   -4.382370e+01
    4019,    1.307885e+02,   -1.236364e+02,   -1.998614e+02
    4020,    1.432642e+02,   -1.236364e+02,   -2.097376e+02
    4021,    1.288036e+02,   -1.236364e+02,   -2.233927e+02
    4022,    1.163278e+02,   -1.236364e+02,   -2.135165e+02
    4023,    1.188007e+02,   -1.163636e+02,   -2.030760e+02
    4024,    1.427763e+02,   -1.163636e+02,   -1.966467e+02
    4025,    1.437522e+02,   -1.163636e+02,   -2.228285e+02
    4026,    1.138549e+02,   -1.163636e+02,   -2.239570e+02
    4027,    1.385657e+02,   -1.236364e+02,   -1.835338e+02
    4028,    1.102947e+02,   -1.236364e+02,   -1.957137e+02
    4029,    9.269632e+01,   -1.236364e+02,   -2.031114e+02
    4030,    9.872942e+01,   -1.236364e+02,   -2.209143e+02
    4031,    8.360391e+01,   -1.163636e+02,   -2.178716e+02
    4032,    1.739639e+02,   -1.236364e+02,   -1.738320e+02
    4033,    1.593816e+02,   -1.236364e+02,   -1.930583e+02
    4034,    1.759869e+02,   -1.163636e+02,   -1.894699e+02
    4035,    1.612948e+02,   -1.236364e+02,   -2.212397e+02
    4036,    1.774121e+02,   -1.236364e+02,   -2.045605e+02
    4037,    1.788374e+02,   -1.163636e+02,   -2.196510e+02
    4038,    2.136385e+02,   -1.236364e+02,   -2.001332e+02
    4039,    1.965348e+02,   -1.236364e+02,   -2.182256e+02
    4040,    1.945158e+02,   -1.236364e+02,   -1.864681e+02
    4041,    2.130447e+02,   -1.163636e+02,   -1.834662e+02
    4042,    2.142322e+02,   -1.163636e+02,   -2.168002e+02
    4043,    2.118365e+02,   -1.236364e+02,   -1.664261e+02
    4044,    1.912846e+02,   -1.236364e+02,   -1.537900e+02
    4045,    2.106282e+02,   -1.163636e+02,   -1.493860e+02
    4046,    2.104724e+02,   -1.236364e+02,   -1.318076e+02
    4047,    1.900963e+02,   -1.236364e+02,   -1.190805e+02
    4048,    2.103167e+02,   -1.163636e+02,   -1.142292e+02
    4049,    2.107242e+02,   -1.236364e+02,   -9.570136e+01
    4050,    1.916849e+02,   -1.236364e+02,   -8.145717e+01
    4051,    2.111318e+02,   -1.163636e+02,   -7.717347e+01
    4052,    1.954815e+02,   -1.236364e+02,   -4.128036e+01
    4053,    2.123095e+02,   -1.236364e+02,   -5.795525e+01
    4054,    2.134872e+02,   -1.163636e+02,   -3.873703e+01
    4055,    5.720203e+01,   -1.236364e+02,   -1.916663e+02
    4056,    6.449247e+01,   -1.236364e+02,   -2.158284e+02
    4057,    4.538103e+01,   -1.163636e+02,   -2.137852e+02
    4058,    2.321161e+02,   -1.236364e+02,   -2.155430e+02
    4059,    2.315224e+02,   -1.236364e+02,   -1.810188e+02
    4060,    2.303141e+02,   -1.236364e+02,   -1.461216e+02
    4061,    2.301583e+02,   -1.236364e+02,   -1.106861e+02
    4062,    2.305659e+02,   -1.236364e+02,   -7.430102e+01
    4063,    2.317436e+02,   -1.236364e+02,   -3.722566e+01
    4064,    4.054766e+01,   -1.236364e+02,   -2.318926e+02
    4065,    7.751624e+01,   -1.236364e+02,   -2.339358e+02
    4066,    1.104989e+02,   -1.236364e+02,   -2.369785e+02
    4067,    1.433047e+02,   -1.236364e+02,   -2.364142e+02
    4068,    1.787044e+02,   -1.236364e+02,   -2.348255e+02
    4069,    2.142590e+02,   -1.236364e+02,   -2.334001e+02
    4070,    2.154936e+02,   -1.236364e+02,   -1.936851e+01
    4071,    1.812379e+02,   -1.236364e+02,   -2.191185e+01
    4072,    1.454386e+02,   -1.236364e+02,   -2.708586e+01
    4073,    3.619901e+01,   -1.236364e+02,   -1.403574e+02
    4074,    3.451152e+01,   -1.236364e+02,   -1.772737e+02
    4075,    2.269051e+01,   -1.236364e+02,   -2.156426e+02
    4076,    9.760206e+01,   -1.381818e+02,   -1.543341e+02
    4077,    1.302681e+02,   -1.381818e+02,   -1.547708e+02
    4078,    1.180720e+02,   -1.381818e+02,   -1.793861e+02
    4079,    8.540588e+01,   -1.381818e+02,   -1.789494e+02
    4080,    6.902303e+01,   -1.309091e+02,   -1.695474e+02
    4081,    1.261811e+02,   -1.309091e+02,   -1.391208e+02
    4082,    1.343552e+02,   -1.309091e+02,   -1.704209e+02
    4083,    1.017887e+02,   -1.309091e+02,   -1.883513e+02
    4084,    1.004276e+02,   -1.381818e+02,   -1.142918e+02
    4085,    1.273191e+02,   -1.381818e+02,   -1.197448e+02
    4086,    7.071053e+01,   -1.381818e+02,   -1.488811e+02
    4087,    7.239803e+01,   -1.309091e+02,   -1.282148e+02
    4088,    1.284572e+02,   -1.309091e+02,   -1.003688e+02
    4089,    1.116150e+02,   -1.381818e+02,   -6.951226e+01
    4090,    1.334172e+02,   -1.381818e+02,   -7.727023e+01
    4091,    7.862542e+01,   -1.381818e+02,   -1.065338e+02
    4092,    1.383771e+02,   -1.309091e+02,   -5.417171e+01
    4093,    1.480285e+02,   -1.381818e+02,   -1.315263e+02
    4094,    1.709085e+02,   -1.381818e+02,   -1.410629e+02
    4095,    1.531481e+02,   -1.381818e+02,   -1.643074e+02
    4096,    1.698759e+02,   -1.309091e+02,   -1.239318e+02
    4097,    1.719410e+02,   -1.309091e+02,   -1.581940e+02
    4098,    1.503476e+02,   -1.381818e+02,   -9.305481e+01
    4099,    1.710569e+02,   -1.381818e+02,   -1.048364e+02
    4100,    1.722379e+02,   -1.309091e+02,   -8.574087e+01
    4101,    1.579265e+02,   -1.381818e+02,   -4.899771e+01
    4102,    1.748569e+02,   -1.381818e+02,   -6.478228e+01
    4103,    1.774758e+02,   -1.309091e+02,   -4.382370e+01
    4104,    1.307885e+02,   -1.381818e+02,   -1.998614e+02
    4105,    1.432642e+02,   -1.381818e+02,   -2.097376e+02
    4106,    1.288036e+02,   -1.381818e+02,   -2.233927e+02
    4107,    1.163278e+02,   -1.381818e+02,   -2.135165e+02
    4108,    1.188007e+02,   -1.309091e+02,   -2.030760e+02
    4109,    1.427763e+02,   -1.309091e+02,   -1.966467e+02
    4110,    1.437522e+02,   -1.309091e+02,   -2.228285e+02
    4111,    1.138549e+02,   -1.309091e+02,   -2.239570e+02
    4112,    1.385657e+02,   -1.381818e+02,   -1.835338e+02
    4113,    1.102947e+02,   -1.381818e+02,   -1.957137e+02
    4114,    9.269632e+01,   -1.381818e+02,   -2.031114e+02
    4115,    9.872942e+01,   -1.381818e+02,   -2.209143e+02
    4116,    8.360391e+01,   -1.309091e+02,   -2.178716e+02
    4117,    1.739639e+02,   -1.381818e+02,   -1.738320e+02
    4118,    1.593816e+02,   -1.381818e+02,   -1.930583e+02
    4119,    1.759869e+02,   -1.309091e+02,   -1.894699e+02
    4120,    1.612948e+02,   -1.381818e+02,   -2.212397e+02
    4121,    1.774121e+02,   -1.381818e+02,   -2.045605e+02
    4122,    1.788374e+02,   -1.309091e+02,   -2.196510e+02
    4123,    2.136385e+02,   -1.381818e+02,   -2.001332e+02
    4124,    1.965348e+02,   -1.381818e+02,   -2.182256e+02
    4125,    1.945158e+02,   -1.381818e+02,   -1.864681e+02
    4126,    2.130447e+02,   -1.309091e+02,   -1.834662e+02
    4127,    2.142322e+02,   -1.309091e+02,   -2.168002e+02
    4128,    2.118365e+02,   -1.381818e+02,   -1.664261e+02
    4129,    1.912846e+02,   -1.381818e+02,   -1.537900e+02
    4130,    2.106282e+02,   -1.309091e+02,   -1.493860e+02
    4131,    2.104724e+02,   -1.381818e+02,   -1.318076e+02
    4132,    1.900963e+02,   -1.381818e+02,   -1.190805e+02
    4133,    2.103167e+02,   -1.309091e+02,   -1.142292e+02
    4134,    2.107242e+02,   -1.381818e+02,   -9.570136e+01
    4135,    1.916849e+02,   -1.381818e+02,   -8.145717e+01
    4136,    2.111318e+02,   -1.309091e+02,   -7.717347e+01
    4137,    1.954815e+02,   -1.381818e+02,   -4.128036e+01
    4138,    2.123095e+02,   -1.381818e+02,   -5.795525e+01
    4139,    2.134872e+02,   -1.309091e+02,   -3.873703e+01
    4140,    5.720203e+01,   -1.381818e+02,   -1.916663e+02
    4141,    6.449247e+01,   -1.381818e+02,   -2.158284e+02
    4142,    4.538103e+01,   -1.309091e+02,   -2.137852e+02
    4143,    2.321161e+02,   -1.381818e+02,   -2.155430e+02
    4144,    2.315224e+02,   -1.381818e+02,   -1.810188e+02
    4145,    2.303141e+02,   -1.381818e+02,   -1.461216e+02
    4146,    2.301583e+02,   -1.381818e+02,   -1.106861e+02
    4147,    2.305659e+02,   -1.381818e+02,   -7.430102e+01
    4148,    2.317436e+02,   -1.381818e+02,   -3.722566e+01
    4149,    4.054766e+01,   -1.381818e+02,   -2.318926e+02
    4150,    7.751624e+01,   -1.381818e+02,   -2.339358e+02
    4151,    1.104989e+02,   -1.381818e+02,   -2.369785e+02
    4152,    1.433047e+02,   -1.381818e+02,   -2.364142e+02
    4153,    1.787044e+02,   -1.381818e+02,   -2.348255e+02
    4154,    2.142590e+02,   -1.381818e+02,   -2.334001e+02
    4155,    2.154936e+02,   -1.381818e+02,   -1.936851e+01
    4156,    1.812379e+02,   -1.381818e+02,   -2.191185e+01
    4157,    1.454386e+02,   -1.381818e+02,   -2.708586e+01
    4158,    3.619901e+01,   -1.381818e+02,   -1.403574e+02
    4159,    3.451152e+01,   -1.381818e+02,   -1.772737e+02
    4160,    2.269051e+01,   -1.381818e+02,   -2.156426e+02
    4161,    9.760206e+01,   -1.527273e+02,   -1.543341e+02
    4162,    1.302681e+02,   -1.527273e+02,   -1.547708e+02
    4163,    1.180720e+02,   -1.527273e+02,   -1.793861e+02
    4164,    8.540588e+01,   -1.527273e+02,   -1.789494e+02
    4165,    6.902303e+01,   -1.454545e+02,   -1.695474e+02
    4166,    1.261811e+02,   -1.454545e+02,   -1.391208e+02
    4167,    1.343552e+02,   -1.454545e+02,   -1.704209e+02
    4168,    1.017887e+02,   -1.454545e+02,   -1.883513e+02
    4169,    1.004276e+02,   -1.527273e+02,   -1.142918e+02
    4170,    1.273191e+02,   -1.527273e+02,   -1.197448e+02
    4171,    7.071053e+01,   -1.527273e+02,   -1.488811e+02
    4172,    7.239803e+01,   -1.454545e+02,   -1.282148e+02
    4173,    1.284572e+02,   -1.454545e+02,   -1.003688e+02
    4174,    1.116150e+02,   -1.527273e+02,   -6.951226e+01
    4175,    1.334172e+02,   -1.527273e+02,   -7.727023e+01
    4176,    7.862542e+01,   -1.527273e+02,   -1.065338e+02
    4177,    1.383771e+02,   -1.454545e+02,   -5.417171e+01
    4178,    1.480285e+02,   -1.527273e+02,   -1.315263e+02
    4179,    1.709085e+02,   -1.527273e+02,   -1.410629e+02
    4180,    1.531481e+02,   -1.527273e+02,   -1.643074e+02
    4181,    1.698759e+02,   -1.454545e+02,   -1.239318e+02
    4182,    1.719410e+02,   -1.454545e+02,   -1.581940e+02
    4183,    1.503476e+02,   -1.527273e+02,   -9.305481e+01
    4184,    1.710569e+02,   -1.527273e+02,   -1.048364e+02
    4185,    1.722379e+02,   -1.454545e+02,   -8.574087e+01
    4186,    1.579265e+02,   -1.527273e+02,   -4.899771e+01
    4187,    1.748569e+02,   -1.527273e+02,   -6.478228e+01
    4188,    1.774758e+02,   -1.454545e+02,   -4.382370e+01
    4189,    1.307885e+02,   -1.527273e+02,   -1.998614e+02
    4190,    1.432642e+02,   -1.527273e+02,   -2.097376e+02
    4191,    1.288036e+02,   -1.527273e+02,   -2.233927e+02
    4192,    1.163278e+02,   -1.527273e+02,   -2.135165e+02
    4193,    1.188007e+02,   -1.454545e+02,   -2.030760e+02
    4194,    1.427763e+02,   -1.454545e+02,   -1.966467e+02
    4195,    1.437522e+02,   -1.454545e+02,   -2.228285e+02
    4196,    1.138549e+02,   -1.454545e+02,   -2.239570e+02
    4197,    1.385657e+02,   -1.527273e+02,   -1.835338e+02
    4198,    1.102947e+02,   -1.527273e+02,   -1.957137e+02
    4199,    9.269632e+01,   -1.527273e+02,   -2.031114e+02
    4200,    9.872942e+01,   -1.527273e+02,   -2.209143e+02
    4201,    8.360391e+01,   -1.454545e+02,   -2.178716e+02
    4202,    1.739639e+02,   -1.527273e+02,   -1.738320e+02
    4203,    1.593816e+02,   -1.527273e+02,   -1.930583e+02
    4204,    1.759869e+02,   -1.454545e+02,   -1.894699e+02
    4205,    1.612948e+02,   -1.527273e+02,   -2.212397e+02
    4206,    1.774121e+02,   -1.527273e+02,   -2.045605e+02
    4207,    1.788374e+02,   -1.454545e+02,   -2.196510e+02
    4208,    2.136385e+02,   -1.527273e+02,   -2.001332e+02
    4209,    1.965348e+02,   -1.527273e+02,   -2.182256e+02
    4210,    1.945158e+02,   -1.527273e+02,   -1.864681e+02
    4211,    2.130447e+02,   -1.454545e+02,   -1.834662e+02
    4212,    2.142322e+02,   -1.454545e+02,   -2.168002e+02
    4213,    2.118365e+02,   -1.527273e+02,   -1.664261e+02
    4214,    1.912846e+02,   -1.527273e+02,   -1.537900e+02
    4215,    2.106282e+02,   -1.454545e+02,   -1.493860e+02
    4216,    2.104724e+02,   -1.527273e+02,   -1.318076e+02
    4217,    1.900963e+02,   -1.527273e+02,   -1.190805e+02
    4218,    2.103167e+02,   -1.454545e+02,   -1.142292e+02
    4219,    2.107242e+02,   -1.527273e+02,   -9.570136e+01
    4220,    1.916849e+02,   -1.527273e+02,   -8.145717e+01
    4221,    2.111318e+02,   -1.454545e+02,   -7.717347e+01
    4222,    1.954815e+02,   -1.527273e+02,   -4.128036e+01
    4223,    2.123095e+02,   -1.527273e+02,   -5.795525e+01
    4224,    2.134872e+02,   -1.454545e+02,   -3.873703e+01
    4225,    5.720203e+01,   -1.527273e+02,   -1.916663e+02
    4226,    6.449247e+01,   -1.527273e+02,   -2.158284e+02
    4227,    4.538103e+01,   -1.454545e+02,   -2.137852e+02
    4228,    2.321161e+02,   -1.527273e+02,   -2.155430e+02
    4229,    2.315224e+02,   -1.527273e+02,   -1.810188e+02
    4230,    2.303141e+02,   -1.527273e+02,   -1.461216e+02
    4231,    2.301583e+02,   -1.527273e+02,   -1.106861e+02
    4232,    2.305659e+02,   -1.527273e+02,   -7.430102e+01
    4233,    2.317436e+02,   -1.527273e+02,   -3.722566e+01
    4234,    4.054766e+01,   -1.527273e+02,   -2.318926e+02
    4235,    7.751624e+01,   -1.527273e+02,   -2.339358e+02
    4236,    1.104989e+02,   -1.527273e+02,   -2.369785e+02
    4237,    1.433047e+02,   -1.527273e+02,   -2.364142e+02
    4238,    1.787044e+02,   -1.527273e+02,   -2.348255e+02
    4239,    2.142590e+02,   -1.527273e+02,   -2.334001e+02
    4240,    2.154936e+02,   -1.527273e+02,   -1.936851e+01
    4241,    1.812379e+02,   -1.527273e+02,   -2.191185e+01
    4242,    1.454386e+02,   -1.527273e+02,   -2.708586e+01
    4243,    3.619901e+01,   -1.527273e+02,   -1.403574e+02
    4244,    3.451152e+01,   -1.527273e+02,   -1.772737e+02
    4245,    2.269051e+01,   -1.527273e+02,   -2.156426e+02
    4246,    9.760206e+01,   -1.672727e+02,   -1.543341e+02
    4247,    1.302681e+02,   -1.672727e+02,   -1.547708e+02
    4248,    1.180720e+02,   -1.672727e+02,   -1.793861e+02
    4249,    8.540588e+01,   -1.672727e+02,   -1.789494e+02
    4250,    6.902303e+01,   -1.600000e+02,   -1.695474e+02
    4251,    1.261811e+02,   -1.600000e+02,   -1.391208e+02
    4252,    1.343552e+02,   -1.600000e+02,   -1.704209e+02
    4253,    1.017887e+02,   -1.600000e+02,   -1.883513e+02
    4254,    1.004276e+02,   -1.672727e+02,   -1.142918e+02
    4255,    1.273191e+02,   -1.672727e+02,   -1.197448e+02
    4256,    7.071053e+01,   -1.672727e+02,   -1.488811e+02
    4257,    7.239803e+01,   -1.600000e+02,   -1.282148e+02
    4258,    1.284572e+02,   -1.600000e+02,   -1.003688e+02
    4259,    1.116150e+02,   -1.672727e+02,   -6.951226e+01
    4260,    1.334172e+02,   -1.672727e+02,   -7.727023e+01
    4261,    7.862542e+01,   -1.672727e+02,   -1.065338e+02
    4262,    1.383771e+02,   -1.600000e+02,   -5.417171e+01
    4263,    1.480285e+02,   -1.672727e+02,   -1.315263e+02
    4264,    1.709085e+02,   -1.672727e+02,   -1.410629e+02
    4265,    1.531481e+02,   -1.672727e+02,   -1.643074e+02
    4266,    1.698759e+02,   -1.600000e+02,   -1.239318e+02
    4267,    1.719410e+02,   -1.600000e+02,   -1.581940e+02
    4268,    1.503476e+02,   -1.672727e+02,   -9.305481e+01
    4269,    1.710569e+02,   -1.672727e+02,   -1.048364e+02
    4270,    1.722379e+02,   -1.600000e+02,   -8.574087e+01
    4271,    1.579265e+02,   -1.672727e+02,   -4.899771e+01
    4272,    1.748569e+02,   -1.672727e+02,   -6.478228e+01
    4273,    1.774758e+02,   -1.600000e+02,   -4.382370e+01
    4274,    1.307885e+02,   -1.672727e+02,   -1.998614e+02
    4275,    1.432642e+02,   -1.672727e+02,   -2.097376e+02
    4276,    1.288036e+02,   -1.672727e+02,   -2.233927e+02
    4277,    1.163278e+02,   -1.672727e+02,   -2.135165e+02
    4278,    1.188007e+02,   -1.600000e+02,   -2.030760e+02
    4279,    1.427763e+02,   -1.600000e+02,   -1.966467e+02
    4280,    1.437522e+02,   -1.600000e+02,   -2.228285e+02
    4281,    1.138549e+02,   -1.600000e+02,   -2.239570e+02
    4282,    1.385657e+02,   -1.672727e+02,   -1.835338e+02
    4283,    1.102947e+02,   -1.672727e+02,   -1.957137e+02
    4284,    9.269632e+01,   -1.672727e+02,   -2.031114e+02
    4285,    9.872942e+01,   -1.672727e+02,   -2.209143e+02
    4286,    8.360391e+01,   -1.600000e+02,   -2.178716e+02
    4287,    1.739639e+02,   -1.672727e+02,   -1.738320e+02
    4288,    1.593816e+02,   -1.672727e+02,   -1.930583e+02
    4289,    1.759869e+02,   -1.600000e+02,   -1.894699e+02
    4290,    1.612948e+02,   -1.672727e+02,   -2.212397e+02
    4291,    1.774121e+02,   -1.672727e+02,   -2.045605e+02
    4292,    1.788374e+02,   -1.600000e+02,   -2.196510e+02
    4293,    2.136385e+02,   -1.672727e+02,   -2.001332e+02
    4294,    1.965348e+02,   -1.672727e+02,   -2.182256e+02
    4295,    1.945158e+02,   -1.672727e+02,   -1.864681e+02
    4296,    2.130447e+02,   -1.600000e+02,   -1.834662e+02
    4297,    2.142322e+02,   -1.600000e+02,   -2.168002e+02
    4298,    2.118365e+02,   -1.672727e+02,   -1.664261e+02
    4299,    1.912846e+02,   -1.672727e+02,   -1.537900e+02
    4300,    2.106282e+02,   -1.600000e+02,   -1.493860e+02
    4301,    2.104724e+02,   -1.672727e+02,   -1.318076e+02
    4302,    1.900963e+02,   -1.672727e+02,   -1.190805e+02
    4303,    2.103167e+02,   -1.600000e+02,   -1.142292e+02
    4304,    2.107242e+02,   -1.672727e+02,   -9.570136e+01
    4305,    1.916849e+02,   -1.672727e+02,   -8.145717e+01
    4306,    2.111318e+02,   -1.600000e+02,   -7.717347e+01
    4307,    1.954815e+02,   -1.672727e+02,   -4.128036e+01
    4308,    2.123095e+02,   -1.672727e+02,   -5.795525e+01
    4309,    2.134872e+02,   -1.600000e+02,   -3.873703e+01
    4310,    5.720203e+01,   -1.672727e+02,   -1.916663e+02
    4311,    6.449247e+01,   -1.672727e+02,   -2.158284e+02
    4312,    4.538103e+01,   -1.600000e+02,   -2.137852e+02
    4313,    2.321161e+02,   -1.672727e+02,   -2.155430e+02
    4314,    2.315224e+02,   -1.672727e+02,   -1.810188e+02
    4315,    2.303141e+02,   -1.672727e+02,   -1.461216e+02
    4316,    2.301583e+02,   -1.672727e+02,   -1.106861e+02
    4317,    2.305659e+02,   -1.672727e+02,   -7.430102e+01
    4318,    2.317436e+02,   -1.672727e+02,   -3.722566e+01
    4319,    4.054766e+01,   -1.672727e+02,   -2.318926e+02
    4320,    7.751624e+01,   -1.672727e+02,   -2.339358e+02
    4321,    1.104989e+02,   -1.672727e+02,   -2.369785e+02
    4322,    1.433047e+02,   -1.672727e+02,   -2.364142e+02
    4323,    1.787044e+02,   -1.672727e+02,   -2.348255e+02
    4324,    2.142590e+02,   -1.672727e+02,   -2.334001e+02
    4325,    2.154936e+02,   -1.672727e+02,   -1.936851e+01
    4326,    1.812379e+02,   -1.672727e+02,   -2.191185e+01
    4327,    1.454386e+02,   -1.672727e+02,   -2.708586e+01
    4328,    3.619901e+01,   -1.672727e+02,   -1.403574e+02
    4329,    3.451152e+01,   -1.672727e+02,   -1.772737e+02
    4330,    2.269051e+01,   -1.672727e+02,   -2.156426e+02
    4331,    9.760206e+01,   -1.818182e+02,   -1.543341e+02
    4332,    1.302681e+02,   -1.818182e+02,   -1.547708e+02
    4333,    1.180720e+02,   -1.818182e+02,   -1.793861e+02
    4334,    8.540588e+01,   -1.818182e+02,   -1.789494e+02
    4335,    6.902303e+01,   -1.745455e+02,   -1.695474e+02
    4336,    1.261811e+02,   -1.745455e+02,   -1.391208e+02
    4337,    1.343552e+02,   -1.745455e+02,   -1.704209e+02
    4338,    1.017887e+02,   -1.745455e+02,   -1.883513e+02
    4339,    1.004276e+02,   -1.818182e+02,   -1.142918e+02
    4340,    1.273191e+02,   -1.818182e+02,   -1.197448e+02
    4341,    7.071053e+01,   -1.818182e+02,   -1.488811e+02
    4342,    7.239803e+01,   -1.745455e+02,   -1.282148e+02
    4343,    1.284572e+02,   -1.745455e+02,   -1.003688e+02
    4344,    1.116150e+02,   -1.818182e+02,   -6.951226e+01
    4345,    1.334172e+02,   -1.818182e+02,   -7.727023e+01
    4346,    7.862542e+01,   -1.818182e+02,   -1.065338e+02
    4347,    1.383771e+02,   -1.745455e+02,   -5.417171e+01
    4348,    1.480285e+02,   -1.818182e+02,   -1.315263e+02
    4349,    1.709085e+02,   -1.818182e+02,   -1.410629e+02
    4350,    1.531481e+02,   -1.818182e+02,   -1.643074e+02
    4351,    1.698759e+02,   -1.745455e+02,   -1.239318e+02
    4352,    1.719410e+02,   -1.745455e+02,   -1.581940e+02
    4353,    1.503476e+02,   -1.818182e+02,   -9.305481e+01
    4354,    1.710569e+02,   -1.818182e+02,   -1.048364e+02
    4355,    1.722379e+02,   -1.745455e+02,   -8.574087e+01
    4356,    1.579265e+02,   -1.818182e+02,   -4.899771e+01
    4357,    1.748569e+02,   -1.818182e+02,   -6.478228e+01
    4358,    1.774758e+02,   -1.745455e+02,   -4.382370e+01
    4359,    1.307885e+02,   -1.818182e+02,   -1.998614e+02
    4360,    1.432642e+02,   -1.818182e+02,   -2.097376e+02
    4361,    1.288036e+02,   -1.818182e+02,   -2.233927e+02
    4362,    1.163278e+02,   -1.818182e+02,   -2.135165e+02
    4363,    1.188007e+02,   -1.745455e+02,   -2.030760e+02
    4364,    1.427763e+02,   -1.745455e+02,   -1.966467e+02
    4365,    1.437522e+02,   -1.745455e+02,   -2.228285e+02
    4366,    1.138549e+02,   -1.745455e+02,   -2.239570e+02
    4367,    1.385657e+02,   -1.818182e+02,   -1.835338e+02
    4368,    1.102947e+02,   -1.818182e+02,   -1.957137e+02
    4369,    9.269632e+01,   -1.818182e+02,   -2.031114e+02
    4370,    9.872942e+01,   -1.818182e+02,   -2.209143e+02
    4371,    8.360391e+01,   -1.745455e+02,   -2.178716e+02
    4372,    1.739639e+02,   -1.818182e+02,   -1.738320e+02
    4373,    1.593816e+02,   -1.818182e+02,   -1.930583e+02
    4374,    1.759869e+02,   -1.745455e+02,   -1.894699e+02
    4375,    1.612948e+02,   -1.818182e+02,   -2.212397e+02
    4376,    1.774121e+02,   -1.818182e+02,   -2.045605e+02
    4377,    1.788374e+02,   -1.745455e+02,   -2.196510e+02
    4378,    2.136385e+02,   -1.818182e+02,   -2.001332e+02
    4379,    1.965348e+02,   -1.818182e+02,   -2.182256e+02
    4380,    1.945158e+02,   -1.818182e+02,   -1.864681e+02
    4381,    2.130447e+02,   -1.745455e+02,   -1.834662e+02
    4382,    2.142322e+02,   -1.745455e+02,   -2.168002e+02
    4383,    2.118365e+02,   -1.818182e+02,   -1.664261e+02
    4384,    1.912846e+02,   -1.818182e+02,   -1.537900e+02
    4385,    2.106282e+02,   -1.745455e+02,   -1.493860e+02
    4386,    2.104724e+02,   -1.818182e+02,   -1.318076e+02
    4387,    1.900963e+02,   -1.818182e+02,   -1.190805e+02
    4388,    2.103167e+02,   -1.745455e+02,   -1.142292e+02
    4389,    2.107242e+02,   -1.818182e+02,   -9.570136e+01
    4390,    1.916849e+02,   -1.818182e+02,   -8.145717e+01
    4391,    2.111318e+02,   -1.745455e+02,   -7.717347e+01
    4392,    1.954815e+02,   -1.818182e+02,   -4.128036e+01
    4393,    2.123095e+02,   -1.818182e+02,   -5.795525e+01
    4394,    2.134872e+02,   -1.745455e+02,   -3.873703e+01
    4395,    5.720203e+01,   -1.818182e+02,   -1.916663e+02
    4396,    6.449247e+01,   -1.818182e+02,   -2.158284e+02
    4397,    4.538103e+01,   -1.745455e+02,   -2.137852e+02
    4398,    2.321161e+02,   -1.818182e+02,   -2.155430e+02
    4399,    2.315224e+02,   -1.818182e+02,   -1.810188e+02
    4400,    2.303141e+02,   -1.818182e+02,   -1.461216e+02
    4401,    2.301583e+02,   -1.818182e+02,   -1.106861e+02
    4402,    2.305659e+02,   -1.818182e+02,   -7.430102e+01
    4403,    2.317436e+02,   -1.818182e+02,   -3.722566e+01
    4404,    4.054766e+01,   -1.818182e+02,   -2.318926e+02
    4405,    7.751624e+01,   -1.818182e+02,   -2.339358e+02
    4406,    1.104989e+02,   -1.818182e+02,   -2.369785e+02
    4407,    1.433047e+02,   -1.818182e+02,   -2.364142e+02
    4408,    1.787044e+02,   -1.818182e+02,   -2.348255e+02
    4409,    2.142590e+02,   -1.818182e+02,   -2.334001e+02
    4410,    2.154936e+02,   -1.818182e+02,   -1.936851e+01
    4411,    1.812379e+02,   -1.818182e+02,   -2.191185e+01
    4412,    1.454386e+02,   -1.818182e+02,   -2.708586e+01
    4413,    3.619901e+01,   -1.818182e+02,   -1.403574e+02
    4414,    3.451152e+01,   -1.818182e+02,   -1.772737e+02
    4415,    2.269051e+01,   -1.818182e+02,   -2.156426e+02
    4416,    9.760206e+01,   -1.963636e+02,   -1.543341e+02
    4417,    1.302681e+02,   -1.963636e+02,   -1.547708e+02
    4418,    1.180720e+02,   -1.963636e+02,   -1.793861e+02
    4419,    8.540588e+01,   -1.963636e+02,   -1.789494e+02
    4420,    6.902303e+01,   -1.890909e+02,   -1.695474e+02
    4421,    1.261811e+02,   -1.890909e+02,   -1.391208e+02
    4422,    1.343552e+02,   -1.890909e+02,   -1.704209e+02
    4423,    1.017887e+02,   -1.890909e+02,   -1.883513e+02
    4424,    1.004276e+02,   -1.963636e+02,   -1.142918e+02
    4425,    1.273191e+02,   -1.963636e+02,   -1.197448e+02
    4426,    7.071053e+01,   -1.963636e+02,   -1.488811e+02
    4427,    7.239803e+01,   -1.890909e+02,   -1.282148e+02
    4428,    1.284572e+02,   -1.890909e+02,   -1.003688e+02
    4429,    1.116150e+02,   -1.963636e+02,   -6.951226e+01
    4430,    1.334172e+02,   -1.963636e+02,   -7.727023e+01
    4431,    7.862542e+01,   -1.963636e+02,   -1.065338e+02
    4432,    1.383771e+02,   -1.890909e+02,   -5.417171e+01
    4433,    1.480285e+02,   -1.963636e+02,   -1.315263e+02
    4434,    1.709085e+02,   -1.963636e+02,   -1.410629e+02
    4435,    1.531481e+02,   -1.963636e+02,   -1.643074e+02
    4436,    1.698759e+02,   -1.890909e+02,   -1.239318e+02
    4437,    1.719410e+02,   -1.890909e+02,   -1.581940e+02
    4438,    1.503476e+02,   -1.963636e+02,   -9.305481e+01
    4439,    1.710569e+02,   -1.963636e+02,   -1.048364e+02
    4440,    1.722379e+02,   -1.890909e+02,   -8.574087e+01
    4441,    1.579265e+02,   -1.963636e+02,   -4.899771e+01
    4442,    1.748569e+02,   -1.963636e+02,   -6.478228e+01
    4443,    1.774758e+02,   -1.890909e+02,   -4.382370e+01
    4444,    1.307885e+02,   -1.963636e+02,   -1.998614e+02
    4445,    1.432642e+02,   -1.963636e+02,   -2.097376e+02
    4446,    1.288036e+02,   -1.963636e+02,   -2.233927e+02
    4447,    1.163278e+02,   -1.963636e+02,   -2.135165e+02
    4448,    1.188007e+02,   -1.890909e+02,   -2.030760e+02
    4449,    1.427763e+02,   -1.890909e+02,   -1.966467e+02
    4450,    1.437522e+02,   -1.890909e+02,   -2.228285e+02
    4451,    1.138549e+02,   -1.890909e+02,   -2.239570e+02
    4452,    1.385657e+02,   -1.963636e+02,   -1.835338e+02
    4453,    1.102947e+02,   -1.963636e+02,   -1.957137e+02
    4454,    9.269632e+01,   -1.963636e+02,   -2.031114e+02
    4455,    9.872942e+01,   -1.963636e+02,   -2.209143e+02
    4456,    8.360391e+01,   -1.890909e+02,   -2.178716e+02
    4457,    1.739639e+02,   -1.963636e+02,   -1.738320e+02
    4458,    1.593816e+02,   -1.963636e+02,   -1.930583e+02
    4459,    1.759869e+02,   -1.890909e+02,   -1.894699e+02
    4460,    1.612948e+02,   -1.963636e+02,   -2.212397e+02
    4461,    1.774121e+02,   -1.963636e+02,   -2.045605e+02
    4462,    1.788374e+02,   -1.890909e+02,   -2.196510e+02
    4463,    2.136385e+02,   -1.963636e+02,   -2.001332e+02
    4464,    1.965348e+02,   -1.963636e+02,   -2.182256e+02
    4465,    1.945158e+02,   -1.963636e+02,   -1.864681e+02
    4466,    2.130447e+02,   -1.890909e+02,   -1.834662e+02
    4467,    2.142322e+02,   -1.890909e+02,   -2.168002e+02
    4468,    2.118365e+02,   -1.963636e+02,   -1.664261e+02
    4469,    1.912846e+02,   -1.963636e+02,   -1.537900e+02
    4470,    2.106282e+02,   -1.890909e+02,   -1.493860e+02
    4471,    2.104724e+02,   -1.963636e+02,   -1.318076e+02
    4472,    1.900963e+02,   -1.963636e+02,   -1.190805e+02
    4473,    2.103167e+02,   -1.890909e+02,   -1.142292e+02
    4474,    2.107242e+02,   -1.963636e+02,   -9.570136e+01
    4475,    1.916849e+02,   -1.963636e+02,   -8.145717e+01
    4476,    2.111318e+02,   -1.890909e+02,   -7.717347e+01
    4477,    1.954815e+02,   -1.963636e+02,   -4.128036e+01
    4478,    2.123095e+02,   -1.963636e+02,   -5.795525e+01
    4479,    2.134872e+02,   -1.890909e+02,   -3.873703e+01
    4480,    5.720203e+01,   -1.963636e+02,   -1.916663e+02
    4481,    6.449247e+01,   -1.963636e+02,   -2.158284e+02
    4482,    4.538103e+01,   -1.890909e+02,   -2.137852e+02
    4483,    2.321161e+02,   -1.963636e+02,   -2.155430e+02
    4484,    2.315224e+02,   -1.963636e+02,   -1.810188e+02
    4485,    2.303141e+02,   -1.963636e+02,   -1.461216e+02
    4486,    2.301583e+02,   -1.963636e+02,   -1.106861e+02
    4487,    2.305659e+02,   -1.963636e+02,   -7.430102e+01
    4488,    2.317436e+02,   -1.963636e+02,   -3.722566e+01
    4489,    4.054766e+01,   -1.963636e+02,   -2.318926e+02
    4490,    7.751624e+01,   -1.963636e+02,   -2.339358e+02
    4491,    1.104989e+02,   -1.963636e+02,   -2.369785e+02
    4492,    1.433047e+02,   -1.963636e+02,   -2.364142e+02
    4493,    1.787044e+02,   -1.963636e+02,   -2.348255e+02
    4494,    2.142590e+02,   -1.963636e+02,   -2.334001e+02
    4495,    2.154936e+02,   -1.963636e+02,   -1.936851e+01
    4496,    1.812379e+02,   -1.963636e+02,   -2.191185e+01
    4497,    1.454386e+02,   -1.963636e+02,   -2.708586e+01
    4498,    3.619901e+01,   -1.963636e+02,   -1.403574e+02
    4499,    3.451152e+01,   -1.963636e+02,   -1.772737e+02
    4500,    2.269051e+01,   -1.963636e+02,   -2.156426e+02
    4501,    9.760206e+01,   -2.109091e+02,   -1.543341e+02
    4502,    1.302681e+02,   -2.109091e+02,   -1.547708e+02
    4503,    1.180720e+02,   -2.109091e+02,   -1.793861e+02
    4504,    8.540588e+01,   -2.109091e+02,   -1.789494e+02
    4505,    6.902303e+01,   -2.036364e+02,   -1.695474e+02
    4506,    1.261811e+02,   -2.036364e+02,   -1.391208e+02
    4507,    1.343552e+02,   -2.036364e+02,   -1.704209e+02
    4508,    1.017887e+02,   -2.036364e+02,   -1.883513e+02
    4509,    1.004276e+02,   -2.109091e+02,   -1.142918e+02
    4510,    1.273191e+02,   -2.109091e+02,   -1.197448e+02
    4511,    7.071053e+01,   -2.109091e+02,   -1.488811e+02
    4512,    7.239803e+01,   -2.036364e+02,   -1.282148e+02
    4513,    1.284572e+02,   -2.036364e+02,   -1.003688e+02
    4514,    1.116150e+02,   -2.109091e+02,   -6.951226e+01
    4515,    1.334172e+02,   -2.109091e+02,   -7.727023e+01
    4516,    7.862542e+01,   -2.109091e+02,   -1.065338e+02
    4517,    1.383771e+02,   -2.036364e+02,   -5.417171e+01
    4518,    1.480285e+02,   -2.109091e+02,   -1.315263e+02
    4519,    1.709085e+02,   -2.109091e+02,   -1.410629e+02
    4520,    1.531481e+02,   -2.109091e+02,   -1.643074e+02
    4521,    1.698759e+02,   -2.036364e+02,   -1.239318e+02
    4522,    1.719410e+02,   -2.036364e+02,   -1.581940e+02
    4523,    1.503476e+02,   -2.109091e+02,   -9.305481e+01
    4524,    1.710569e+02,   -2.109091e+02,   -1.048364e+02
    4525,    1.722379e+02,   -2.036364e+02,   -8.574087e+01
    4526,    1.579265e+02,   -2.109091e+02,   -4.899771e+01
    4527,    1.748569e+02,   -2.109091e+02,   -6.478228e+01
    4528,    1.774758e+02,   -2.036364e+02,   -4.382370e+01
    4529,    1.307885e+02,   -2.109091e+02,   -1.998614e+02
    4530,    1.432642e+02,   -2.109091e+02,   -2.097376e+02
    4531,    1.288036e+02,   -2.109091e+02,   -2.233927e+02
    4532,    1.163278e+02,   -2.109091e+02,   -2.135165e+02
    4533,    1.188007e+02,   -2.036364e+02,   -2.030760e+02
    4534,    1.427763e+02,   -2.036364e+02,   -1.966467e+02
    4535,    1.437522e+02,   -2.036364e+02,   -2.228285e+02
    4536,    1.138549e+02,   -2.036364e+02,   -2.239570e+02
    4537,    1.385657e+02,   -2.109091e+02,   -1.835338e+02
    4538,    1.102947e+02,   -2.109091e+02,   -1.957137e+02
    4539,    9.269632e+01,   -2.109091e+02,   -2.031114e+02
    4540,    9.872942e+01,   -2.109091e+02,   -2.209143e+02
    4541,    8.360391e+01,   -2.036364e+02,   -2.178716e+02
    4542,    1.739639e+02,   -2.109091e+02,   -1.738320e+02
    4543,    1.593816e+02,   -2.109091e+02,   -1.930583e+02
    4544,    1.759869e+02,   -2.036364e+02,   -1.894699e+02
    4545,    1.612948e+02,   -2.109091e+02,   -2.212397e+02
    4546,    1.774121e+02,   -2.109091e+02,   -2.045605e+02
    4547,    1.788374e+02,   -2.036364e+02,   -2.196510e+02
    4548,    2.136385e+02,   -2.109091e+02,   -2.001332e+02
    4549,    1.965348e+02,   -2.109091e+02,   -2.182256e+02
    4550,    1.945158e+02,   -2.109091e+02,   -1.864681e+02
    4551,    2.130447e+02,   -2.036364e+02,   -1.834662e+02
    4552,    2.142322e+02,   -2.036364e+02,   -2.168002e+02
    4553,    2.118365e+02,   -2.109091e+02,   -1.664261e+02
    4554,    1.912846e+02,   -2.109091e+02,   -1.537900e+02
    4555,    2.106282e+02,   -2.036364e+02,   -1.493860e+02
    4556,    2.104724e+02,   -2.109091e+02,   -1.318076e+02
    4557,    1.900963e+02,   -2.109091e+02,   -1.190805e+02
    4558,    2.103167e+02,   -2.036364e+02,   -1.142292e+02
    4559,    2.107242e+02,   -2.109091e+02,   -9.570136e+01
    4560,    1.916849e+02,   -2.109091e+02,   -8.145717e+01
    4561,    2.111318e+02,   -2.036364e+02,   -7.717347e+01
    4562,    1.954815e+02,   -2.109091e+02,   -4.128036e+01
    4563,    2.123095e+02,   -2.109091e+02,   -5.795525e+01
    4564,    2.134872e+02,   -2.036364e+02,   -3.873703e+01
    4565,    5.720203e+01,   -2.109091e+02,   -1.916663e+02
    4566,    6.449247e+01,   -2.109091e+02,   -2.158284e+02
    4567,    4.538103e+01,   -2.036364e+02,   -2.137852e+02
    4568,    2.321161e+02,   -2.109091e+02,   -2.155430e+02
    4569,    2.315224e+02,   -2.109091e+02,   -1.810188e+02
    4570,    2.303141e+02,   -2.109091e+02,   -1.461216e+02
    4571,    2.301583e+02,   -2.109091e+02,   -1.106861e+02
    4572,    2.305659e+02,   -2.109091e+02,   -7.430102e+01
    4573,    2.317436e+02,   -2.109091e+02,   -3.722566e+01
    4574,    4.054766e+01,   -2.109091e+02,   -2.318926e+02
    4575,    7.751624e+01,   -2.109091e+02,   -2.339358e+02
    4576,    1.104989e+02,   -2.109091e+02,   -2.369785e+02
    4577,    1.433047e+02,   -2.109091e+02,   -2.364142e+02
    4578,    1.787044e+02,   -2.109091e+02,   -2.348255e+02
    4579,    2.142590e+02,   -2.109091e+02,   -2.334001e+02
    4580,    2.154936e+02,   -2.109091e+02,   -1.936851e+01
    4581,    1.812379e+02,   -2.109091e+02,   -2.191185e+01
    4582,    1.454386e+02,   -2.109091e+02,   -2.708586e+01
    4583,    3.619901e+01,   -2.109091e+02,   -1.403574e+02
    4584,    3.451152e+01,   -2.109091e+02,   -1.772737e+02
    4585,    2.269051e+01,   -2.109091e+02,   -2.156426e+02
    4586,    9.760206e+01,   -2.254545e+02,   -1.543341e+02
    4587,    1.302681e+02,   -2.254545e+02,   -1.547708e+02
    4588,    1.180720e+02,   -2.254545e+02,   -1.793861e+02
    4589,    8.540588e+01,   -2.254545e+02,   -1.789494e+02
    4590,    6.902303e+01,   -2.181818e+02,   -1.695474e+02
    4591,    1.261811e+02,   -2.181818e+02,   -1.391208e+02
    4592,    1.343552e+02,   -2.181818e+02,   -1.704209e+02
    4593,    1.017887e+02,   -2.181818e+02,   -1.883513e+02
    4594,    1.004276e+02,   -2.254545e+02,   -1.142918e+02
    4595,    1.273191e+02,   -2.254545e+02,   -1.197448e+02
    4596,    7.071053e+01,   -2.254545e+02,   -1.488811e+02
    4597,    7.239803e+01,   -2.181818e+02,   -1.282148e+02
    4598,    1.284572e+02,   -2.181818e+02,   -1.003688e+02
    4599,    1.116150e+02,   -2.254545e+02,   -6.951226e+01
    4600,    1.334172e+02,   -2.254545e+02,   -7.727023e+01
    4601,    7.862542e+01,   -2.254545e+02,   -1.065338e+02
    4602,    1.383771e+02,   -2.181818e+02,   -5.417171e+01
    4603,    1.480285e+02,   -2.254545e+02,   -1.315263e+02
    4604,    1.709085e+02,   -2.254545e+02,   -1.410629e+02
    4605,    1.531481e+02,   -2.254545e+02,   -1.643074e+02
    4606,    1.698759e+02,   -2.181818e+02,   -1.239318e+02
    4607,    1.719410e+02,   -2.181818e+02,   -1.581940e+02
    4608,    1.503476e+02,   -2.254545e+02,   -9.305481e+01
    4609,    1.710569e+02,   -2.254545e+02,   -1.048364e+02
    4610,    1.722379e+02,   -2.181818e+02,   -8.574087e+01
    4611,    1.579265e+02,   -2.254545e+02,   -4.899771e+01
    4612,    1.748569e+02,   -2.254545e+02,   -6.478228e+01
    4613,    1.774758e+02,   -2.181818e+02,   -4.382370e+01
    4614,    1.307885e+02,   -2.254545e+02,   -1.998614e+02
    4615,    1.432642e+02,   -2.254545e+02,   -2.097376e+02
    4616,    1.288036e+02,   -2.254545e+02,   -2.233927e+02
    4617,    1.163278e+02,   -2.254545e+02,   -2.135165e+02
    4618,    1.188007e+02,   -2.181818e+02,   -2.030760e+02
    4619,    1.427763e+02,   -2.181818e+02,   -1.966467e+02
    4620,    1.437522e+02,   -2.181818e+02,   -2.228285e+02
    4621,    1.138549e+02,   -2.181818e+02,   -2.239570e+02
    4622,    1.385657e+02,   -2.254545e+02,   -1.835338e+02
    4623,    1.102947e+02,   -2.254545e+02,   -1.957137e+02
    4624,    9.269632e+01,   -2.254545e+02,   -2.031114e+02
    4625,    9.872942e+01,   -2.254545e+02,   -2.209143e+02
    4626,    8.360391e+01,   -2.181818e+02,   -2.178716e+02
    4627,    1.739639e+02,   -2.254545e+02,   -1.738320e+02
    4628,    1.593816e+02,   -2.254545e+02,   -1.930583e+02
    4629,    1.759869e+02,   -2.181818e+02,   -1.894699e+02
    4630,    1.612948e+02,   -2.254545e+02,   -2.212397e+02
    4631,    1.774121e+02,   -2.254545e+02,   -2.045605e+02
    4632,    1.788374e+02,   -2.181818e+02,   -2.196510e+02
    4633,    2.136385e+02,   -2.254545e+02,   -2.001332e+02
    4634,    1.965348e+02,   -2.254545e+02,   -2.182256e+02
    4635,    1.945158e+02,   -2.254545e+02,   -1.864681e+02
    4636,    2.130447e+02,   -2.181818e+02,   -1.834662e+02
    4637,    2.142322e+02,   -2.181818e+02,   -2.168002e+02
    4638,    2.118365e+02,   -2.254545e+02,   -1.664261e+02
    4639,    1.912846e+02,   -2.254545e+02,   -1.537900e+02
    4640,    2.106282e+02,   -2.181818e+02,   -1.493860e+02
    4641,    2.104724e+02,   -2.254545e+02,   -1.318076e+02
    4642,    1.900963e+02,   -2.254545e+02,   -1.190805e+02
    4643,    2.103167e+02,   -2.181818e+02,   -1.142292e+02
    4644,    2.107242e+02,   -2.254545e+02,   -9.570136e+01
    4645,    1.916849e+02,   -2.254545e+02,   -8.145717e+01
    4646,    2.111318e+02,   -2.181818e+02,   -7.717347e+01
    4647,    1.954815e+02,   -2.254545e+02,   -4.128036e+01
    4648,    2.123095e+02,   -2.254545e+02,   -5.795525e+01
    4649,    2.134872e+02,   -2.181818e+02,   -3.873703e+01
    4650,    5.720203e+01,   -2.254545e+02,   -1.916663e+02
    4651,    6.449247e+01,   -2.254545e+02,   -2.158284e+02
    4652,    4.538103e+01,   -2.181818e+02,   -2.137852e+02
    4653,    2.321161e+02,   -2.254545e+02,   -2.155430e+02
    4654,    2.315224e+02,   -2.254545e+02,   -1.810188e+02
    4655,    2.303141e+02,   -2.254545e+02,   -1.461216e+02
    4656,    2.301583e+02,   -2.254545e+02,   -1.106861e+02
    4657,    2.305659e+02,   -2.254545e+02,   -7.430102e+01
    4658,    2.317436e+02,   -2.254545e+02,   -3.722566e+01
    4659,    4.054766e+01,   -2.254545e+02,   -2.318926e+02
    4660,    7.751624e+01,   -2.254545e+02,   -2.339358e+02
    4661,    1.104989e+02,   -2.254545e+02,   -2.369785e+02
    4662,    1.433047e+02,   -2.254545e+02,   -2.364142e+02
    4663,    1.787044e+02,   -2.254545e+02,   -2.348255e+02
    4664,    2.142590e+02,   -2.254545e+02,   -2.334001e+02
    4665,    2.154936e+02,   -2.254545e+02,   -1.936851e+01
    4666,    1.812379e+02,   -2.254545e+02,   -2.191185e+01
    4667,    1.454386e+02,   -2.254545e+02,   -2.708586e+01
    4668,    3.619901e+01,   -2.254545e+02,   -1.403574e+02
    4669,    3.451152e+01,   -2.254545e+02,   -1.772737e+02
    4670,    2.269051e+01,   -2.254545e+02,   -2.156426e+02
    4671,    6.902303e+01,   -2.327273e+02,   -1.695474e+02
    4672,    1.261811e+02,   -2.327273e+02,   -1.391208e+02
    4673,    1.343552e+02,   -2.327273e+02,   -1.704209e+02
    4674,    1.017887e+02,   -2.327273e+02,   -1.883513e+02
    4675,    7.239803e+01,   -2.327273e+02,   -1.282148e+02
    4676,    1.284572e+02,   -2.327273e+02,   -1.003688e+02
    4677,    1.383771e+02,   -2.327273e+02,   -5.417171e+01
    4678,    1.698759e+02,   -2.327273e+02,   -1.239318e+02
    4679,    1.719410e+02,   -2.327273e+02,   -1.581940e+02
    4680,    1.722379e+02,   -2.327273e+02,   -8.574087e+01
    4681,    1.774758e+02,   -2.327273e+02,   -4.382370e+01
    4682,    1.188007e+02,   -2.327273e+02,   -2.030760e+02
    4683,    1.427763e+02,   -2.327273e+02,   -1.966467e+02
    4684,    1.437522e+02,   -2.327273e+02,   -2.228285e+02
    4685,    1.138549e+02,   -2.327273e+02,   -2.239570e+02
    4686,    8.360391e+01,   -2.327273e+02,   -2.178716e+02
    4687,    1.759869e+02,   -2.327273e+02,   -1.894699e+02
    4688,    1.788374e+02,   -2.327273e+02,   -2.196510e+02
    4689,    2.130447e+02,   -2.327273e+02,   -1.834662e+02
    4690,    2.142322e+02,   -2.327273e+02,   -2.168002e+02
    4691,    2.106282e+02,   -2.327273e+02,   -1.493860e+02
    4692,    2.103167e+02,   -2.327273e+02,   -1.142292e+02
    4693,    2.111318e+02,   -2.327273e+02,   -7.717347e+01
    4694,    2.134872e+02,   -2.327273e+02,   -3.873703e+01
    4695,    4.538103e+01,   -2.327273e+02,   -2.137852e+02
    4696,    0.000000e+00,   -8.000000e+00,   -1.200000e+02
    4697,    0.000000e+00,   -2.400000e+01,   -1.200000e+02
    4698,    0.000000e+00,   -4.000000e+01,   -1.200000e+02
    4699,    0.000000e+00,   -5.600000e+01,   -1.200000e+02
    4700,    0.000000e+00,   -7.200000e+01,   -1.200000e+02
    4701,    0.000000e+00,    0.000000e+00,   -2.337500e+02
    4702,    0.000000e+00,    0.000000e+00,   -2.012500e+02
    4703,    0.000000e+00,    0.000000e+00,   -1.687500e+02
    4704,    0.000000e+00,    0.000000e+00,   -1.362500e+02
    4705,    0.000000e+00,   -7.200000e+01,   -2.500000e+02
    4706,    0.000000e+00,   -5.600000e+01,   -2.500000e+02
    4707,    0.000000e+00,   -4.000000e+01,   -2.500000e+02
    4708,    0.000000e+00,   -2.400000e+01,   -2.500000e+02
    4709,    0.000000e+00,   -8.000000e+00,   -2.500000e+02
    4710,    0.000000e+00,   -7.200000e+01,   -2.175000e+02
    4711,    0.000000e+00,   -6.400000e+01,   -2.337500e+02
    4712,    0.000000e+00,   -7.200000e+01,   -1.850000e+02
    4713,    0.000000e+00,   -6.400000e+01,   -2.012500e+02
    4714,    0.000000e+00,   -7.200000e+01,   -1.525000e+02
    4715,    0.000000e+00,   -6.400000e+01,   -1.687500e+02
    4716,    0.000000e+00,   -6.400000e+01,   -1.362500e+02
    4717,    0.000000e+00,   -5.600000e+01,   -2.175000e+02
    4718,    0.000000e+00,   -4.800000e+01,   -2.337500e+02
    4719,    0.000000e+00,   -5.600000e+01,   -1.850000e+02
    4720,    0.000000e+00,   -4.800000e+01,   -2.012500e+02
    4721,    0.000000e+00,   -5.600000e+01,   -1.525000e+02
    4722,    0.000000e+00,   -4.800000e+01,   -1.687500e+02
    4723,    0.000000e+00,   -4.800000e+01,   -1.362500e+02
    4724,    0.000000e+00,   -4.000000e+01,   -2.175000e+02
    4725,    0.000000e+00,   -3.200000e+01,   -2.337500e+02
    4726,    0.000000e+00,   -4.000000e+01,   -1.850000e+02
    4727,    0.000000e+00,   -3.200000e+01,   -2.012500e+02
    4728,    0.000000e+00,   -4.000000e+01,   -1.525000e+02
    4729,    0.000000e+00,   -3.200000e+01,   -1.687500e+02
    4730,    0.000000e+00,   -3.200000e+01,   -1.362500e+02
    4731,    0.000000e+00,   -2.400000e+01,   -2.175000e+02
    4732,    0.000000e+00,   -1.600000e+01,   -2.337500e+02
    4733,    0.000000e+00,   -2.400000e+01,   -1.850000e+02
    4734,    0.000000e+00,   -1.600000e+01,   -2.012500e+02
    4735,    0.000000e+00,   -2.400000e+01,   -1.525000e+02
    4736,    0.000000e+00,   -1.600000e+01,   -1.687500e+02
    4737,    0.000000e+00,   -1.600000e+01,   -1.362500e+02
    4738,    0.000000e+00,   -8.000000e+00,   -2.175000e+02
    4739,    0.000000e+00,   -8.000000e+00,   -1.850000e+02
    4740,    0.000000e+00,   -8.000000e+00,   -1.525000e+02
    4741,    4.592201e+01,    0.000000e+00,   -1.108655e+02
    4742,    1.108655e+02,    0.000000e+00,   -4.592201e+01
    4743,    2.337500e+02,    0.000000e+00,    0.000000e+00
    4744,    2.012500e+02,    0.000000e+00,    0.000000e+00
    4745,    1.687500e+02,    0.000000e+00,    0.000000e+00
    4746,    1.362500e+02,    0.000000e+00,    0.000000e+00
    4747,    2.500000e+02,    0.000000e+00,   -1.785714e+01
    4748,    2.500000e+02,    0.000000e+00,   -5.357143e+01
    4749,    2.500000e+02,    0.000000e+00,   -8.928571e+01
    4750,    2.500000e+02,    0.000000e+00,   -1.250000e+02
    4751,    2.500000e+02,    0.000000e+00,   -1.607143e+02
    4752,    2.500000e+02,    0.000000e+00,   -1.964286e+02
    4753,    2.500000e+02,    0.000000e+00,   -2.321429e+02
    4754,    1.785714e+01,    0.000000e+00,   -2.500000e+02
    4755,    5.357143e+01,    0.000000e+00,   -2.500000e+02
    4756,    8.928571e+01,    0.000000e+00,   -2.500000e+02
    4757,    1.250000e+02,    0.000000e+00,   -2.500000e+02
    4758,    1.607143e+02,    0.000000e+00,   -2.500000e+02
    4759,    1.964286e+02,    0.000000e+00,   -2.500000e+02
    4760,    2.321429e+02,    0.000000e+00,   -2.500000e+02
    4761,    9.760206e+01,    0.000000e+00,   -1.543341e+02
    4762,    1.302681e+02,    0.000000e+00,   -1.547708e+02
    4763,    1.180720e+02,    0.000000e+00,   -1.793861e+02
    4764,    8.540588e+01,    0.000000e+00,   -1.789494e+02
    4765,    1.004276e+02,    0.000000e+00,   -1.142918e+02
    4766,    1.273191e+02,    0.000000e+00,   -1.197448e+02
    4767,    7.071053e+01,    0.000000e+00,   -1.488811e+02
    4768,    1.116150e+02,    0.000000e+00,   -6.951226e+01
    4769,    1.334172e+02,    0.000000e+00,   -7.727023e+01
    4770,    7.862542e+01,    0.000000e+00,   -1.065338e+02
    4771,    1.480285e+02,    0.000000e+00,   -1.315263e+02
    4772,    1.709085e+02,    0.000000e+00,   -1.410629e+02
    4773,    1.531481e+02,    0.000000e+00,   -1.643074e+02
    4774,    1.503476e+02,    0.000000e+00,   -9.305481e+01
    4775,    1.710569e+02,    0.000000e+00,   -1.048364e+02
    4776,    1.579265e+02,    0.000000e+00,   -4.899771e+01
    4777,    1.748569e+02,    0.000000e+00,   -6.478228e+01
    4778,    1.307885e+02,    0.000000e+00,   -1.998614e+02
    4779,    1.432642e+02,    0.000000e+00,   -2.097376e+02
    4780,    1.288036e+02,    0.000000e+00,   -2.233927e+02
    4781,    1.163278e+02,    0.000000e+00,   -2.135165e+02
    4782,    1.385657e+02,    0.000000e+00,   -1.835338e+02
    4783,    1.102947e+02,    0.000000e+00,   -1.957137e+02
    4784,    9.269632e+01,    0.000000e+00,   -2.031114e+02
    4785,    9.872942e+01,    0.000000e+00,   -2.209143e+02
    4786,    1.739639e+02,    0.000000e+00,   -1.738320e+02
    4787,    1.593816e+02,    0.000000e+00,   -1.930583e+02
    4788,    1.612948e+02,    0.000000e+00,   -2.212397e+02
    4789,    1.774121e+02,    0.000000e+00,   -2.045605e+02
    4790,    2.136385e+02,    0.000000e+00,   -2.001332e+02
    4791,    1.965348e+02,    0.000000e+00,   -2.182256e+02
    4792,    1.945158e+02,    0.000000e+00,   -1.864681e+02
    4793,    2.118365e+02,    0.000000e+00,   -1.664261e+02
    4794,    1.912846e+02,    0.000000e+00,   -1.537900e+02
    4795,    2.104724e+02,    0.000000e+00,   -1.318076e+02
    4796,    1.900963e+02,    0.000000e+00,   -1.190805e+02
    4797,    2.107242e+02,    0.000000e+00,   -9.570136e+01
    4798,    1.916849e+02,    0.000000e+00,   -8.145717e+01
    4799,    1.954815e+02,    0.000000e+00,   -4.128036e+01
    4800,    2.123095e+02,    0.000000e+00,   -5.795525e+01
    4801,    5.720203e+01,    0.000000e+00,   -1.916663e+02
    4802,    6.449247e+01,    0.000000e+00,   -2.158284e+02
    4803,    2.321161e+02,    0.000000e+00,   -2.155430e+02
    4804,    2.315224e+02,    0.000000e+00,   -1.810188e+02
    4805,    2.303141e+02,    0.000000e+00,   -1.461216e+02
    4806,    2.301583e+02,    0.000000e+00,   -1.106861e+02
    4807,    2.305659e+02,    0.000000e+00,   -7.430102e+01
    4808,    2.317436e+02,    0.000000e+00,   -3.722566e+01
    4809,    4.054766e+01,    0.000000e+00,   -2.318926e+02
    4810,    7.751624e+01,    0.000000e+00,   -2.339358e+02
    4811,    1.104989e+02,    0.000000e+00,   -2.369785e+02
    4812,    1.433047e+02,    0.000000e+00,   -2.364142e+02
    4813,    1.787044e+02,    0.000000e+00,   -2.348255e+02
    4814,    2.142590e+02,    0.000000e+00,   -2.334001e+02
    4815,    2.154936e+02,    0.000000e+00,   -1.936851e+01
    4816,    1.812379e+02,    0.000000e+00,   -2.191185e+01
    4817,    1.454386e+02,    0.000000e+00,   -2.708586e+01
    4818,    3.619901e+01,    0.000000e+00,   -1.403574e+02
    4819,    3.451152e+01,    0.000000e+00,   -1.772737e+02
    4820,    2.269051e+01,    0.000000e+00,   -2.156426e+02
    4821,    1.200000e+02,   -8.000000e+00,   -4.898587e-16
    4822,    1.200000e+02,   -2.400000e+01,   -1.469576e-15
    4823,    1.200000e+02,   -4.000000e+01,   -2.449294e-15
    4824,    1.200000e+02,   -5.600000e+01,   -3.429011e-15
    4825,    1.200000e+02,   -7.200000e+01,   -4.408728e-15
    4826,    4.592201e+01,   -1.600000e+01,   -1.108655e+02
    4827,    8.485281e+01,   -8.000000e+00,   -8.485281e+01
    4828,    4.592201e+01,   -3.200000e+01,   -1.108655e+02
    4829,    8.485281e+01,   -2.400000e+01,   -8.485281e+01
    4830,    4.592201e+01,   -4.800000e+01,   -1.108655e+02
    4831,    8.485281e+01,   -4.000000e+01,   -8.485281e+01
    4832,    4.592201e+01,   -6.400000e+01,   -1.108655e+02
    4833,    8.485281e+01,   -5.600000e+01,   -8.485281e+01
    4834,    8.485281e+01,   -7.200000e+01,   -8.485281e+01
    4835,    1.108655e+02,   -1.600000e+01,   -4.592201e+01
    4836,    1.108655e+02,   -3.200000e+01,   -4.592201e+01
    4837,    1.108655e+02,   -4.800000e+01,   -4.592201e+01
    4838,    1.108655e+02,   -6.400000e+01,   -4.592201e+01
    4839,    2.500000e+02,   -7.200000e+01,    0.000000e+00
    4840,    2.500000e+02,   -5.600000e+01,    0.000000e+00
    4841,    2.500000e+02,   -4.000000e+01,    0.000000e+00
    4842,    2.500000e+02,   -2.400000e+01,    0.000000e+00
    4843,    2.500000e+02,   -8.000000e+00,    0.000000e+00
    4844,    1.362500e+02,   -1.600000e+01,    0.000000e+00
    4845,    1.525000e+02,   -8.000000e+00,    0.000000e+00
    4846,    1.362500e+02,   -3.200000e+01,    0.000000e+00
    4847,    1.525000e+02,   -2.400000e+01,    0.000000e+00
    4848,    1.362500e+02,   -4.800000e+01,    0.000000e+00
    4849,    1.525000e+02,   -4.000000e+01,    0.000000e+00
    4850,    1.362500e+02,   -6.400000e+01,    0.000000e+00
    4851,    1.525000e+02,   -5.600000e+01,    0.000000e+00
    4852,    1.525000e+02,   -7.200000e+01,    0.000000e+00
    4853,    1.687500e+02,   -1.600000e+01,    0.000000e+00
    4854,    1.850000e+02,   -8.000000e+00,    0.000000e+00
    4855,    1.687500e+02,   -3.200000e+01,    0.000000e+00
    4856,    1.850000e+02,   -2.400000e+01,    0.000000e+00
    4857,    1.687500e+02,   -4.800000e+01,    0.000000e+00
    4858,    1.850000e+02,   -4.000000e+01,    0.000000e+00
    4859,    1.687500e+02,   -6.400000e+01,    0.000000e+00
    4860,    1.850000e+02,   -5.600000e+01,    0.000000e+00
    4861,    1.850000e+02,   -7.200000e+01,    0.000000e+00
    4862,    2.012500e+02,   -1.600000e+01,    0.000000e+00
    4863,    2.175000e+02,   -8.000000e+00,    0.000000e+00
    4864,    2.012500e+02,   -3.200000e+01,    0.000000e+00
    4865,    2.175000e+02,   -2.400000e+01,    0.000000e+00
    4866,    2.012500e+02,   -4.800000e+01,    0.000000e+00
    4867,    2.175000e+02,   -4.000000e+01,    0.000000e+00
    4868,    2.012500e+02,   -6.400000e+01,    0.000000e+00
    4869,    2.175000e+02,   -5.600000e+01,    0.000000e+00
    4870,    2.175000e+02,   -7.200000e+01,    0.000000e+00
    4871,    2.337500e+02,   -1.600000e+01,    0.000000e+00
    4872,    2.337500e+02,   -3.200000e+01,    0.000000e+00
    4873,    2.337500e+02,   -4.800000e+01,    0.000000e+00
    4874,    2.337500e+02,   -6.400000e+01,    0.000000e+00
    4875,    2.500000e+02,   -8.000000e+00,   -2.500000e+02
    4876,    2.500000e+02,   -2.400000e+01,   -2.500000e+02
    4877,    2.500000e+02,   -4.000000e+01,   -2.500000e+02
    4878,    2.500000e+02,   -5.600000e+01,   -2.500000e+02
    4879,    2.500000e+02,   -7.200000e+01,   -2.500000e+02
    4880,    2.500000e+02,   -1.600000e+01,   -1.785714e+01
    4881,    2.500000e+02,   -8.000000e+00,   -3.571429e+01
    4882,    2.500000e+02,   -3.200000e+01,   -1.785714e+01
    4883,    2.500000e+02,   -2.400000e+01,   -3.571429e+01
    4884,    2.500000e+02,   -4.800000e+01,   -1.785714e+01
    4885,    2.500000e+02,   -4.000000e+01,   -3.571429e+01
    4886,    2.500000e+02,   -6.400000e+01,   -1.785714e+01
    4887,    2.500000e+02,   -5.600000e+01,   -3.571429e+01
    4888,    2.500000e+02,   -7.200000e+01,   -3.571429e+01
    4889,    2.500000e+02,   -1.600000e+01,   -5.357143e+01
    4890,    2.500000e+02,   -8.000000e+00,   -7.142857e+01
    4891,    2.500000e+02,   -3.200000e+01,   -5.357143e+01
    4892,    2.500000e+02,   -2.400000e+01,   -7.142857e+01
    4893,    2.500000e+02,   -4.800000e+01,   -5.357143e+01
    4894,    2.500000e+02,   -4.000000e+01,   -7.142857e+01
    4895,    2.500000e+02,   -6.400000e+01,   -5.357143e+01
    4896,    2.500000e+02,   -5.600000e+01,   -7.142857e+01
    4897,    2.500000e+02,   -7.200000e+01,   -7.142857e+01
    4898,    2.500000e+02,   -1.600000e+01,   -8.928571e+01
    4899,    2.500000e+02,   -8.000000e+00,   -1.071429e+02
    4900,    2.500000e+02,   -3.200000e+01,   -8.928571e+01
    4901,    2.500000e+02,   -2.400000e+01,   -1.071429e+02
    4902,    2.500000e+02,   -4.800000e+01,   -8.928571e+01
    4903,    2.500000e+02,   -4.000000e+01,   -1.071429e+02
    4904,    2.500000e+02,   -6.400000e+01,   -8.928571e+01
    4905,    2.500000e+02,   -5.600000e+01,   -1.071429e+02
    4906,    2.500000e+02,   -7.200000e+01,   -1.071429e+02
    4907,    2.500000e+02,   -1.600000e+01,   -1.250000e+02
    4908,    2.500000e+02,   -8.000000e+00,   -1.428571e+02
    4909,    2.500000e+02,   -3.200000e+01,   -1.250000e+02
    4910,    2.500000e+02,   -2.400000e+01,   -1.428571e+02
    4911,    2.500000e+02,   -4.800000e+01,   -1.250000e+02
    4912,    2.500000e+02,   -4.000000e+01,   -1.428571e+02
    4913,    2.500000e+02,   -6.400000e+01,   -1.250000e+02
    4914,    2.500000e+02,   -5.600000e+01,   -1.428571e+02
    4915,    2.500000e+02,   -7.200000e+01,   -1.428571e+02
    4916,    2.500000e+02,   -1.600000e+01,   -1.607143e+02
    4917,    2.500000e+02,   -8.000000e+00,   -1.785714e+02
    4918,    2.500000e+02,   -3.200000e+01,   -1.607143e+02
    4919,    2.500000e+02,   -2.400000e+01,   -1.785714e+02
    4920,    2.500000e+02,   -4.800000e+01,   -1.607143e+02
    4921,    2.500000e+02,   -4.000000e+01,   -1.785714e+02
    4922,    2.500000e+02,   -6.400000e+01,   -1.607143e+02
    4923,    2.500000e+02,   -5.600000e+01,   -1.785714e+02
    4924,    2.500000e+02,   -7.200000e+01,   -1.785714e+02
    4925,    2.500000e+02,   -1.600000e+01,   -1.964286e+02
    4926,    2.500000e+02,   -8.000000e+00,   -2.142857e+02
    4927,    2.500000e+02,   -3.200000e+01,   -1.964286e+02
    4928,    2.500000e+02,   -2.400000e+01,   -2.142857e+02
    4929,    2.500000e+02,   -4.800000e+01,   -1.964286e+02
    4930,    2.500000e+02,   -4.000000e+01,   -2.142857e+02
    4931,    2.500000e+02,   -6.400000e+01,   -1.964286e+02
    4932,    2.500000e+02,   -5.600000e+01,   -2.142857e+02
    4933,    2.500000e+02,   -7.200000e+01,   -2.142857e+02
    4934,    2.500000e+02,   -1.600000e+01,   -2.321429e+02
    4935,    2.500000e+02,   -3.200000e+01,   -2.321429e+02
    4936,    2.500000e+02,   -4.800000e+01,   -2.321429e+02
    4937,    2.500000e+02,   -6.400000e+01,   -2.321429e+02
    4938,    1.785714e+01,   -6.400000e+01,   -2.500000e+02
    4939,    3.571429e+01,   -7.200000e+01,   -2.500000e+02
    4940,    1.785714e+01,   -4.800000e+01,   -2.500000e+02
    4941,    3.571429e+01,   -5.600000e+01,   -2.500000e+02
    4942,    1.785714e+01,   -3.200000e+01,   -2.500000e+02
    4943,    3.571429e+01,   -4.000000e+01,   -2.500000e+02
    4944,    1.785714e+01,   -1.600000e+01,   -2.500000e+02
    4945,    3.571429e+01,   -2.400000e+01,   -2.500000e+02
    4946,    3.571429e+01,   -8.000000e+00,   -2.500000e+02
    4947,    5.357143e+01,   -6.400000e+01,   -2.500000e+02
    4948,    7.142857e+01,   -7.200000e+01,   -2.500000e+02
    4949,    5.357143e+01,   -4.800000e+01,   -2.500000e+02
    4950,    7.142857e+01,   -5.600000e+01,   -2.500000e+02
    4951,    5.357143e+01,   -3.200000e+01,   -2.500000e+02
    4952,    7.142857e+01,   -4.000000e+01,   -2.500000e+02
    4953,    5.357143e+01,   -1.600000e+01,   -2.500000e+02
    4954,    7.142857e+01,   -2.400000e+01,   -2.500000e+02
    4955,    7.142857e+01,   -8.000000e+00,   -2.500000e+02
    4956,    8.928571e+01,   -6.400000e+01,   -2.500000e+02
    4957,    1.071429e+02,   -7.200000e+01,   -2.500000e+02
    4958,    8.928571e+01,   -4.800000e+01,   -2.500000e+02
    4959,    1.071429e+02,   -5.600000e+01,   -2.500000e+02
    4960,    8.928571e+01,   -3.200000e+01,   -2.500000e+02
    4961,    1.071429e+02,   -4.000000e+01,   -2.500000e+02
    4962,    8.928571e+01,   -1.600000e+01,   -2.500000e+02
    4963,    1.071429e+02,   -2.400000e+01,   -2.500000e+02
    4964,    1.071429e+02,   -8.000000e+00,   -2.500000e+02
    4965,    1.250000e+02,   -6.400000e+01,   -2.500000e+02
    4966,    1.428571e+02,   -7.200000e+01,   -2.500000e+02
    4967,    1.250000e+02,   -4.800000e+01,   -2.500000e+02
    4968,    1.428571e+02,   -5.600000e+01,   -2.500000e+02
    4969,    1.250000e+02,   -3.200000e+01,   -2.500000e+02
    4970,    1.428571e+02,   -4.000000e+01,   -2.500000e+02
    4971,    1.250000e+02,   -1.600000e+01,   -2.500000e+02
    4972,    1.428571e+02,   -2.400000e+01,   -2.500000e+02
    4973,    1.428571e+02,   -8.000000e+00,   -2.500000e+02
    4974,    1.607143e+02,   -6.400000e+01,   -2.500000e+02
    4975,    1.785714e+02,   -7.200000e+01,   -2.500000e+02
    4976,    1.607143e+02,   -4.800000e+01,   -2.500000e+02
    4977,    1.785714e+02,   -5.600000e+01,   -2.500000e+02
    4978,    1.607143e+02,   -3.200000e+01,   -2.500000e+02
    4979,    1.785714e+02,   -4.000000e+01,   -2.500000e+02
    4980,    1.607143e+02,   -1.600000e+01,   -2.500000e+02
    4981,    1.785714e+02,   -2.400000e+01,   -2.500000e+02
    4982,    1.785714e+02,   -8.000000e+00,   -2.500000e+02
    4983,    1.964286e+02,   -6.400000e+01,   -2.500000e+02
    4984,    2.142857e+02,   -7.200000e+01,   -2.500000e+02
    4985,    1.964286e+02,   -4.800000e+01,   -2.500000e+02
    4986,    2.142857e+02,   -5.600000e+01,   -2.500000e+02
    4987,    1.964286e+02,   -3.200000e+01,   -2.500000e+02
    4988,    2.142857e+02,   -4.000000e+01,   -2.500000e+02
    4989,    1.964286e+02,   -1.600000e+01,   -2.500000e+02
    4990,    2.142857e+02,   -2.400000e+01,   -2.500000e+02
    4991,    2.142857e+02,   -8.000000e+00,   -2.500000e+02
    4992,    2.321429e+02,   -6.400000e+01,   -2.500000e+02
    4993,    2.321429e+02,   -4.800000e+01,   -2.500000e+02
    4994,    2.321429e+02,   -3.200000e+01,   -2.500000e+02
    4995,    2.321429e+02,   -1.600000e+01,   -2.500000e+02
    4996,    6.902303e+01,   -7.200000e+01,   -1.695474e+02
    4997,    1.261811e+02,   -7.200000e+01,   -1.391208e+02
    4998,    1.343552e+02,   -7.200000e+01,   -1.704209e+02
    4999,    1.017887e+02,   -7.200000e+01,   -1.883513e+02
    5000,    9.760206e+01,   -6.400000e+01,   -1.543341e+02
    5001,    1.302681e+02,   -6.400000e+01,   -1.547708e+02
    5002,    1.180720e+02,   -6.400000e+01,   -1.793861e+02
    5003,    8.540588e+01,   -6.400000e+01,   -1.789494e+02
    5004,    7.239803e+01,   -7.200000e+01,   -1.282148e+02
    5005,    1.284572e+02,   -7.200000e+01,   -1.003688e+02
    5006,    1.004276e+02,   -6.400000e+01,   -1.142918e+02
    5007,    1.273191e+02,   -6.400000e+01,   -1.197448e+02
    5008,    7.071053e+01,   -6.400000e+01,   -1.488811e+02
    5009,    1.383771e+02,   -7.200000e+01,   -5.417171e+01
    5010,    1.116150e+02,   -6.400000e+01,   -6.951226e+01
    5011,    1.334172e+02,   -6.400000e+01,   -7.727023e+01
    5012,    7.862542e+01,   -6.400000e+01,   -1.065338e+02
    5013,    1.698759e+02,   -7.200000e+01,   -1.239318e+02
    5014,    1.719410e+02,   -7.200000e+01,   -1.581940e+02
    5015,    1.480285e+02,   -6.400000e+01,   -1.315263e+02
    5016,    1.709085e+02,   -6.400000e+01,   -1.410629e+02
    5017,    1.531481e+02,   -6.400000e+01,   -1.643074e+02
    5018,    1.722379e+02,   -7.200000e+01,   -8.574087e+01
    5019,    1.503476e+02,   -6.400000e+01,   -9.305481e+01
    5020,    1.710569e+02,   -6.400000e+01,   -1.048364e+02
    5021,    1.774758e+02,   -7.200000e+01,   -4.382370e+01
    5022,    1.579265e+02,   -6.400000e+01,   -4.899771e+01
    5023,    1.748569e+02,   -6.400000e+01,   -6.478228e+01
    5024,    1.188007e+02,   -7.200000e+01,   -2.030760e+02
    5025,    1.427763e+02,   -7.200000e+01,   -1.966467e+02
    5026,    1.437522e+02,   -7.200000e+01,   -2.228285e+02
    5027,    1.138549e+02,   -7.200000e+01,   -2.239570e+02
    5028,    1.307885e+02,   -6.400000e+01,   -1.998614e+02
    5029,    1.432642e+02,   -6.400000e+01,   -2.097376e+02
    5030,    1.288036e+02,   -6.400000e+01,   -2.233927e+02
    5031,    1.163278e+02,   -6.400000e+01,   -2.135165e+02
    5032,    1.385657e+02,   -6.400000e+01,   -1.835338e+02
    5033,    1.102947e+02,   -6.400000e+01,   -1.957137e+02
    5034,    8.360391e+01,   -7.200000e+01,   -2.178716e+02
    5035,    9.269632e+01,   -6.400000e+01,   -2.031114e+02
    5036,    9.872942e+01,   -6.400000e+01,   -2.209143e+02
    5037,    1.759869e+02,   -7.200000e+01,   -1.894699e+02
    5038,    1.739639e+02,   -6.400000e+01,   -1.738320e+02
    5039,    1.593816e+02,   -6.400000e+01,   -1.930583e+02
    5040,    1.788374e+02,   -7.200000e+01,   -2.196510e+02
    5041,    1.612948e+02,   -6.400000e+01,   -2.212397e+02
    5042,    1.774121e+02,   -6.400000e+01,   -2.045605e+02
    5043,    2.130447e+02,   -7.200000e+01,   -1.834662e+02
    5044,    2.142322e+02,   -7.200000e+01,   -2.168002e+02
    5045,    2.136385e+02,   -6.400000e+01,   -2.001332e+02
    5046,    1.965348e+02,   -6.400000e+01,   -2.182256e+02
    5047,    1.945158e+02,   -6.400000e+01,   -1.864681e+02
    5048,    2.106282e+02,   -7.200000e+01,   -1.493860e+02
    5049,    2.118365e+02,   -6.400000e+01,   -1.664261e+02
    5050,    1.912846e+02,   -6.400000e+01,   -1.537900e+02
    5051,    2.103167e+02,   -7.200000e+01,   -1.142292e+02
    5052,    2.104724e+02,   -6.400000e+01,   -1.318076e+02
    5053,    1.900963e+02,   -6.400000e+01,   -1.190805e+02
    5054,    2.111318e+02,   -7.200000e+01,   -7.717347e+01
    5055,    2.107242e+02,   -6.400000e+01,   -9.570136e+01
    5056,    1.916849e+02,   -6.400000e+01,   -8.145717e+01
    5057,    2.134872e+02,   -7.200000e+01,   -3.873703e+01
    5058,    1.954815e+02,   -6.400000e+01,   -4.128036e+01
    5059,    2.123095e+02,   -6.400000e+01,   -5.795525e+01
    5060,    4.538103e+01,   -7.200000e+01,   -2.137852e+02
    5061,    5.720203e+01,   -6.400000e+01,   -1.916663e+02
    5062,    6.449247e+01,   -6.400000e+01,   -2.158284e+02
    5063,    2.321161e+02,   -6.400000e+01,   -2.155430e+02
    5064,    2.315224e+02,   -6.400000e+01,   -1.810188e+02
    5065,    2.303141e+02,   -6.400000e+01,   -1.461216e+02
    5066,    2.301583e+02,   -6.400000e+01,   -1.106861e+02
    5067,    2.305659e+02,   -6.400000e+01,   -7.430102e+01
    5068,    2.317436e+02,   -6.400000e+01,   -3.722566e+01
    5069,    4.054766e+01,   -6.400000e+01,   -2.318926e+02
    5070,    7.751624e+01,   -6.400000e+01,   -2.339358e+02
    5071,    1.104989e+02,   -6.400000e+01,   -2.369785e+02
    5072,    1.433047e+02,   -6.400000e+01,   -2.364142e+02
    5073,    1.787044e+02,   -6.400000e+01,   -2.348255e+02
    5074,    2.142590e+02,   -6.400000e+01,   -2.334001e+02
    5075,    2.154936e+02,   -6.400000e+01,   -1.936851e+01
    5076,    1.812379e+02,   -6.400000e+01,   -2.191185e+01
    5077,    1.454386e+02,   -6.400000e+01,   -2.708586e+01
    5078,    3.619901e+01,   -6.400000e+01,   -1.403574e+02
    5079,    3.451152e+01,   -6.400000e+01,   -1.772737e+02
    5080,    2.269051e+01,   -6.400000e+01,   -2.156426e+02
    5081,    6.902303e+01,   -5.600000e+01,   -1.695474e+02
    5082,    1.261811e+02,   -5.600000e+01,   -1.391208e+02
    5083,    1.343552e+02,   -5.600000e+01,   -1.704209e+02
    5084,    1.017887e+02,   -5.600000e+01,   -1.883513e+02
    5085,    9.760206e+01,   -4.800000e+01,   -1.543341e+02
    5086,    1.302681e+02,   -4.800000e+01,   -1.547708e+02
    5087,    1.180720e+02,   -4.800000e+01,   -1.793861e+02
    5088,    8.540588e+01,   -4.800000e+01,   -1.789494e+02
    5089,    7.239803e+01,   -5.600000e+01,   -1.282148e+02
    5090,    1.284572e+02,   -5.600000e+01,   -1.003688e+02
    5091,    1.004276e+02,   -4.800000e+01,   -1.142918e+02
    5092,    1.273191e+02,   -4.800000e+01,   -1.197448e+02
    5093,    7.071053e+01,   -4.800000e+01,   -1.488811e+02
    5094,    1.383771e+02,   -5.600000e+01,   -5.417171e+01
    5095,    1.116150e+02,   -4.800000e+01,   -6.951226e+01
    5096,    1.334172e+02,   -4.800000e+01,   -7.727023e+01
    5097,    7.862542e+01,   -4.800000e+01,   -1.065338e+02
    5098,    1.698759e+02,   -5.600000e+01,   -1.239318e+02
    5099,    1.719410e+02,   -5.600000e+01,   -1.581940e+02
    5100,    1.480285e+02,   -4.800000e+01,   -1.315263e+02
    5101,    1.709085e+02,   -4.800000e+01,   -1.410629e+02
    5102,    1.531481e+02,   -4.800000e+01,   -1.643074e+02
    5103,    1.722379e+02,   -5.600000e+01,   -8.574087e+01
    5104,    1.503476e+02,   -4.800000e+01,   -9.305481e+01
    5105,    1.710569e+02,   -4.800000e+01,   -1.048364e+02
    5106,    1.774758e+02,   -5.600000e+01,   -4.382370e+01
    5107,    1.579265e+02,   -4.800000e+01,   -4.899771e+01
    5108,    1.748569e+02,   -4.800000e+01,   -6.478228e+01
    5109,    1.188007e+02,   -5.600000e+01,   -2.030760e+02
    5110,    1.427763e+02,   -5.600000e+01,   -1.966467e+02
    5111,    1.437522e+02,   -5.600000e+01,   -2.228285e+02
    5112,    1.138549e+02,   -5.600000e+01,   -2.239570e+02
    5113,    1.307885e+02,   -4.800000e+01,   -1.998614e+02
    5114,    1.432642e+02,   -4.800000e+01,   -2.097376e+02
    5115,    1.288036e+02,   -4.800000e+01,   -2.233927e+02
    5116,    1.163278e+02,   -4.800000e+01,   -2.135165e+02
    5117,    1.385657e+02,   -4.800000e+01,   -1.835338e+02
    5118,    1.102947e+02,   -4.800000e+01,   -1.957137e+02
    5119,    8.360391e+01,   -5.600000e+01,   -2.178716e+02
    5120,    9.269632e+01,   -4.800000e+01,   -2.031114e+02
    5121,    9.872942e+01,   -4.800000e+01,   -2.209143e+02
    5122,    1.759869e+02,   -5.600000e+01,   -1.894699e+02
    5123,    1.739639e+02,   -4.800000e+01,   -1.738320e+02
    5124,    1.593816e+02,   -4.800000e+01,   -1.930583e+02
    5125,    1.788374e+02,   -5.600000e+01,   -2.196510e+02
    5126,    1.612948e+02,   -4.800000e+01,   -2.212397e+02
    5127,    1.774121e+02,   -4.800000e+01,   -2.045605e+02
    5128,    2.130447e+02,   -5.600000e+01,   -1.834662e+02
    5129,    2.142322e+02,   -5.600000e+01,   -2.168002e+02
    5130,    2.136385e+02,   -4.800000e+01,   -2.001332e+02
    5131,    1.965348e+02,   -4.800000e+01,   -2.182256e+02
    5132,    1.945158e+02,   -4.800000e+01,   -1.864681e+02
    5133,    2.106282e+02,   -5.600000e+01,   -1.493860e+02
    5134,    2.118365e+02,   -4.800000e+01,   -1.664261e+02
    5135,    1.912846e+02,   -4.800000e+01,   -1.537900e+02
    5136,    2.103167e+02,   -5.600000e+01,   -1.142292e+02
    5137,    2.104724e+02,   -4.800000e+01,   -1.318076e+02
    5138,    1.900963e+02,   -4.800000e+01,   -1.190805e+02
    5139,    2.111318e+02,   -5.600000e+01,   -7.717347e+01
    5140,    2.107242e+02,   -4.800000e+01,   -9.570136e+01
    5141,    1.916849e+02,   -4.800000e+01,   -8.145717e+01
    5142,    2.134872e+02,   -5.600000e+01,   -3.873703e+01
    5143,    1.954815e+02,   -4.800000e+01,   -4.128036e+01
    5144,    2.123095e+02,   -4.800000e+01,   -5.795525e+01
    5145,    4.538103e+01,   -5.600000e+01,   -2.137852e+02
    5146,    5.720203e+01,   -4.800000e+01,   -1.916663e+02
    5147,    6.449247e+01,   -4.800000e+01,   -2.158284e+02
    5148,    2.321161e+02,   -4.800000e+01,   -2.155430e+02
    5149,    2.315224e+02,   -4.800000e+01,   -1.810188e+02
    5150,    2.303141e+02,   -4.800000e+01,   -1.461216e+02
    5151,    2.301583e+02,   -4.800000e+01,   -1.106861e+02
    5152,    2.305659e+02,   -4.800000e+01,   -7.430102e+01
    5153,    2.317436e+02,   -4.800000e+01,   -3.722566e+01
    5154,    4.054766e+01,   -4.800000e+01,   -2.318926e+02
    5155,    7.751624e+01,   -4.800000e+01,   -2.339358e+02
    5156,    1.104989e+02,   -4.800000e+01,   -2.369785e+02
    5157,    1.433047e+02,   -4.800000e+01,   -2.364142e+02
    5158,    1.787044e+02,   -4.800000e+01,   -2.348255e+02
    5159,    2.142590e+02,   -4.800000e+01,   -2.334001e+02
    5160,    2.154936e+02,   -4.800000e+01,   -1.936851e+01
    5161,    1.812379e+02,   -4.800000e+01,   -2.191185e+01
    5162,    1.454386e+02,   -4.800000e+01,   -2.708586e+01
    5163,    3.619901e+01,   -4.800000e+01,   -1.403574e+02
    5164,    3.451152e+01,   -4.800000e+01,   -1.772737e+02
    5165,    2.269051e+01,   -4.800000e+01,   -2.156426e+02
    5166,    6.902303e+01,   -4.000000e+01,   -1.695474e+02
    5167,    1.261811e+02,   -4.000000e+01,   -1.391208e+02
    5168,    1.343552e+02,   -4.000000e+01,   -1.704209e+02
    5169,    1.017887e+02,   -4.000000e+01,   -1.883513e+02
    5170,    9.760206e+01,   -3.200000e+01,   -1.543341e+02
    5171,    1.302681e+02,   -3.200000e+01,   -1.547708e+02
    5172,    1.180720e+02,   -3.200000e+01,   -1.793861e+02
    5173,    8.540588e+01,   -3.200000e+01,   -1.789494e+02
    5174,    7.239803e+01,   -4.000000e+01,   -1.282148e+02
    5175,    1.284572e+02,   -4.000000e+01,   -1.003688e+02
    5176,    1.004276e+02,   -3.200000e+01,   -1.142918e+02
    5177,    1.273191e+02,   -3.200000e+01,   -1.197448e+02
    5178,    7.071053e+01,   -3.200000e+01,   -1.488811e+02
    5179,    1.383771e+02,   -4.000000e+01,   -5.417171e+01
    5180,    1.116150e+02,   -3.200000e+01,   -6.951226e+01
    5181,    1.334172e+02,   -3.200000e+01,   -7.727023e+01
    5182,    7.862542e+01,   -3.200000e+01,   -1.065338e+02
    5183,    1.698759e+02,   -4.000000e+01,   -1.239318e+02
    5184,    1.719410e+02,   -4.000000e+01,   -1.581940e+02
    5185,    1.480285e+02,   -3.200000e+01,   -1.315263e+02
    5186,    1.709085e+02,   -3.200000e+01,   -1.410629e+02
    5187,    1.531481e+02,   -3.200000e+01,   -1.643074e+02
    5188,    1.722379e+02,   -4.000000e+01,   -8.574087e+01
    5189,    1.503476e+02,   -3.200000e+01,   -9.305481e+01
    5190,    1.710569e+02,   -3.200000e+01,   -1.048364e+02
    5191,    1.774758e+02,   -4.000000e+01,   -4.382370e+01
    5192,    1.579265e+02,   -3.200000e+01,   -4.899771e+01
    5193,    1.748569e+02,   -3.200000e+01,   -6.478228e+01
    5194,    1.188007e+02,   -4.000000e+01,   -2.030760e+02
    5195,    1.427763e+02,   -4.000000e+01,   -1.966467e+02
    5196,    1.437522e+02,   -4.000000e+01,   -2.228285e+02
    5197,    1.138549e+02,   -4.000000e+01,   -2.239570e+02
    5198,    1.307885e+02,   -3.200000e+01,   -1.998614e+02
    5199,    1.432642e+02,   -3.200000e+01,   -2.097376e+02
    5200,    1.288036e+02,   -3.200000e+01,   -2.233927e+02
    5201,    1.163278e+02,   -3.200000e+01,   -2.135165e+02
    5202,    1.385657e+02,   -3.200000e+01,   -1.835338e+02
    5203,    1.102947e+02,   -3.200000e+01,   -1.957137e+02
    5204,    8.360391e+01,   -4.000000e+01,   -2.178716e+02
    5205,    9.269632e+01,   -3.200000e+01,   -2.031114e+02
    5206,    9.872942e+01,   -3.200000e+01,   -2.209143e+02
    5207,    1.759869e+02,   -4.000000e+01,   -1.894699e+02
    5208,    1.739639e+02,   -3.200000e+01,   -1.738320e+02
    5209,    1.593816e+02,   -3.200000e+01,   -1.930583e+02
    5210,    1.788374e+02,   -4.000000e+01,   -2.196510e+02
    5211,    1.612948e+02,   -3.200000e+01,   -2.212397e+02
    5212,    1.774121e+02,   -3.200000e+01,   -2.045605e+02
    5213,    2.130447e+02,   -4.000000e+01,   -1.834662e+02
    5214,    2.142322e+02,   -4.000000e+01,   -2.168002e+02
    5215,    2.136385e+02,   -3.200000e+01,   -2.001332e+02
    5216,    1.965348e+02,   -3.200000e+01,   -2.182256e+02
    5217,    1.945158e+02,   -3.200000e+01,   -1.864681e+02
    5218,    2.106282e+02,   -4.000000e+01,   -1.493860e+02
    5219,    2.118365e+02,   -3.200000e+01,   -1.664261e+02
    5220,    1.912846e+02,   -3.200000e+01,   -1.537900e+02
    5221,    2.103167e+02,   -4.000000e+01,   -1.142292e+02
    5222,    2.104724e+02,   -3.200000e+01,   -1.318076e+02
    5223,    1.900963e+02,   -3.200000e+01,   -1.190805e+02
    5224,    2.111318e+02,   -4.000000e+01,   -7.717347e+01
    5225,    2.107242e+02,   -3.200000e+01,   -9.570136e+01
    5226,    1.916849e+02,   -3.200000e+01,   -8.145717e+01
    5227,    2.134872e+02,   -4.000000e+01,   -3.873703e+01
    5228,    1.954815e+02,   -3.200000e+01,   -4.128036e+01
    5229,    2.123095e+02,   -3.200000e+01,   -5.795525e+01
    5230,    4.538103e+01,   -4.000000e+01,   -2.137852e+02
    5231,    5.720203e+01,   -3.200000e+01,   -1.916663e+02
    5232,    6.449247e+01,   -3.200000e+01,   -2.158284e+02
    5233,    2.321161e+02,   -3.200000e+01,   -2.155430e+02
    5234,    2.315224e+02,   -3.200000e+01,   -1.810188e+02
    5235,    2.303141e+02,   -3.200000e+01,   -1.461216e+02
    5236,    2.301583e+02,   -3.200000e+01,   -1.106861e+02
    5237,    2.305659e+02,   -3.200000e+01,   -7.430102e+01
    5238,    2.317436e+02,   -3.200000e+01,   -3.722566e+01
    5239,    4.054766e+01,   -3.200000e+01,   -2.318926e+02
    5240,    7.751624e+01,   -3.200000e+01,   -2.339358e+02
    5241,    1.104989e+02,   -3.200000e+01,   -2.369785e+02
    5242,    1.433047e+02,   -3.200000e+01,   -2.364142e+02
    5243,    1.787044e+02,   -3.200000e+01,   -2.348255e+02
    5244,    2.142590e+02,   -3.200000e+01,   -2.334001e+02
    5245,    2.154936e+02,   -3.200000e+01,   -1.936851e+01
    5246,    1.812379e+02,   -3.200000e+01,   -2.191185e+01
    5247,    1.454386e+02,   -3.200000e+01,   -2.708586e+01
    5248,    3.619901e+01,   -3.200000e+01,   -1.403574e+02
    5249,    3.451152e+01,   -3.200000e+01,   -1.772737e+02
    5250,    2.269051e+01,   -3.200000e+01,   -2.156426e+02
    5251,    6.902303e+01,   -2.400000e+01,   -1.695474e+02
    5252,    1.261811e+02,   -2.400000e+01,   -1.391208e+02
    5253,    1.343552e+02,   -2.400000e+01,   -1.704209e+02
    5254,    1.017887e+02,   -2.400000e+01,   -1.883513e+02
    5255,    9.760206e+01,   -1.600000e+01,   -1.543341e+02
    5256,    1.302681e+02,   -1.600000e+01,   -1.547708e+02
    5257,    1.180720e+02,   -1.600000e+01,   -1.793861e+02
    5258,    8.540588e+01,   -1.600000e+01,   -1.789494e+02
    5259,    7.239803e+01,   -2.400000e+01,   -1.282148e+02
    5260,    1.284572e+02,   -2.400000e+01,   -1.003688e+02
    5261,    1.004276e+02,   -1.600000e+01,   -1.142918e+02
    5262,    1.273191e+02,   -1.600000e+01,   -1.197448e+02
    5263,    7.071053e+01,   -1.600000e+01,   -1.488811e+02
    5264,    1.383771e+02,   -2.400000e+01,   -5.417171e+01
    5265,    1.116150e+02,   -1.600000e+01,   -6.951226e+01
    5266,    1.334172e+02,   -1.600000e+01,   -7.727023e+01
    5267,    7.862542e+01,   -1.600000e+01,   -1.065338e+02
    5268,    1.698759e+02,   -2.400000e+01,   -1.239318e+02
    5269,    1.719410e+02,   -2.400000e+01,   -1.581940e+02
    5270,    1.480285e+02,   -1.600000e+01,   -1.315263e+02
    5271,    1.709085e+02,   -1.600000e+01,   -1.410629e+02
    5272,    1.531481e+02,   -1.600000e+01,   -1.643074e+02
    5273,    1.722379e+02,   -2.400000e+01,   -8.574087e+01
    5274,    1.503476e+02,   -1.600000e+01,   -9.305481e+01
    5275,    1.710569e+02,   -1.600000e+01,   -1.048364e+02
    5276,    1.774758e+02,   -2.400000e+01,   -4.382370e+01
    5277,    1.579265e+02,   -1.600000e+01,   -4.899771e+01
    5278,    1.748569e+02,   -1.600000e+01,   -6.478228e+01
    5279,    1.188007e+02,   -2.400000e+01,   -2.030760e+02
    5280,    1.427763e+02,   -2.400000e+01,   -1.966467e+02
    5281,    1.437522e+02,   -2.400000e+01,   -2.228285e+02
    5282,    1.138549e+02,   -2.400000e+01,   -2.239570e+02
    5283,    1.307885e+02,   -1.600000e+01,   -1.998614e+02
    5284,    1.432642e+02,   -1.600000e+01,   -2.097376e+02
    5285,    1.288036e+02,   -1.600000e+01,   -2.233927e+02
    5286,    1.163278e+02,   -1.600000e+01,   -2.135165e+02
    5287,    1.385657e+02,   -1.600000e+01,   -1.835338e+02
    5288,    1.102947e+02,   -1.600000e+01,   -1.957137e+02
    5289,    8.360391e+01,   -2.400000e+01,   -2.178716e+02
    5290,    9.269632e+01,   -1.600000e+01,   -2.031114e+02
    5291,    9.872942e+01,   -1.600000e+01,   -2.209143e+02
    5292,    1.759869e+02,   -2.400000e+01,   -1.894699e+02
    5293,    1.739639e+02,   -1.600000e+01,   -1.738320e+02
    5294,    1.593816e+02,   -1.600000e+01,   -1.930583e+02
    5295,    1.788374e+02,   -2.400000e+01,   -2.196510e+02
    5296,    1.612948e+02,   -1.600000e+01,   -2.212397e+02
    5297,    1.774121e+02,   -1.600000e+01,   -2.045605e+02
    5298,    2.130447e+02,   -2.400000e+01,   -1.834662e+02
    5299,    2.142322e+02,   -2.400000e+01,   -2.168002e+02
    5300,    2.136385e+02,   -1.600000e+01,   -2.001332e+02
    5301,    1.965348e+02,   -1.600000e+01,   -2.182256e+02
    5302,    1.945158e+02,   -1.600000e+01,   -1.864681e+02
    5303,    2.106282e+02,   -2.400000e+01,   -1.493860e+02
    5304,    2.118365e+02,   -1.600000e+01,   -1.664261e+02
    5305,    1.912846e+02,   -1.600000e+01,   -1.537900e+02
    5306,    2.103167e+02,   -2.400000e+01,   -1.142292e+02
    5307,    2.104724e+02,   -1.600000e+01,   -1.318076e+02
    5308,    1.900963e+02,   -1.600000e+01,   -1.190805e+02
    5309,    2.111318e+02,   -2.400000e+01,   -7.717347e+01
    5310,    2.107242e+02,   -1.600000e+01,   -9.570136e+01
    5311,    1.916849e+02,   -1.600000e+01,   -8.145717e+01
    5312,    2.134872e+02,   -2.400000e+01,   -3.873703e+01
    5313,    1.954815e+02,   -1.600000e+01,   -4.128036e+01
    5314,    2.123095e+02,   -1.600000e+01,   -5.795525e+01
    5315,    4.538103e+01,   -2.400000e+01,   -2.137852e+02
    5316,    5.720203e+01,   -1.600000e+01,   -1.916663e+02
    5317,    6.449247e+01,   -1.600000e+01,   -2.158284e+02
    5318,    2.321161e+02,   -1.600000e+01,   -2.155430e+02
    5319,    2.315224e+02,   -1.600000e+01,   -1.810188e+02
    5320,    2.303141e+02,   -1.600000e+01,   -1.461216e+02
    5321,    2.301583e+02,   -1.600000e+01,   -1.106861e+02
    5322,    2.305659e+02,   -1.600000e+01,   -7.430102e+01
    5323,    2.317436e+02,   -1.600000e+01,   -3.722566e+01
    5324,    4.054766e+01,   -1.600000e+01,   -2.318926e+02
    5325,    7.751624e+01,   -1.600000e+01,   -2.339358e+02
    5326,    1.104989e+02,   -1.600000e+01,   -2.369785e+02
    5327,    1.433047e+02,   -1.600000e+01,   -2.364142e+02
    5328,    1.787044e+02,   -1.600000e+01,   -2.348255e+02
    5329,    2.142590e+02,   -1.600000e+01,   -2.334001e+02
    5330,    2.154936e+02,   -1.600000e+01,   -1.936851e+01
    5331,    1.812379e+02,   -1.600000e+01,   -2.191185e+01
    5332,    1.454386e+02,   -1.600000e+01,   -2.708586e+01
    5333,    3.619901e+01,   -1.600000e+01,   -1.403574e+02
    5334,    3.451152e+01,   -1.600000e+01,   -1.772737e+02
    5335,    2.269051e+01,   -1.600000e+01,   -2.156426e+02
    5336,    6.902303e+01,   -8.000000e+00,   -1.695474e+02
    5337,    1.261811e+02,   -8.000000e+00,   -1.391208e+02
    5338,    1.343552e+02,   -8.000000e+00,   -1.704209e+02
    5339,    1.017887e+02,   -8.000000e+00,   -1.883513e+02
    5340,    7.239803e+01,   -8.000000e+00,   -1.282148e+02
    5341,    1.284572e+02,   -8.000000e+00,   -1.003688e+02
    5342,    1.383771e+02,   -8.000000e+00,   -5.417171e+01
    5343,    1.698759e+02,   -8.000000e+00,   -1.239318e+02
    5344,    1.719410e+02,   -8.000000e+00,   -1.581940e+02
    5345,    1.722379e+02,   -8.000000e+00,   -8.574087e+01
    5346,    1.774758e+02,   -8.000000e+00,   -4.382370e+01
    5347,    1.188007e+02,   -8.000000e+00,   -2.030760e+02
    5348,    1.427763e+02,   -8.000000e+00,   -1.966467e+02
    5349,    1.437522e+02,   -8.000000e+00,   -2.228285e+02
    5350,    1.138549e+02,   -8.000000e+00,   -2.239570e+02
    5351,    8.360391e+01,   -8.000000e+00,   -2.178716e+02
    5352,    1.759869e+02,   -8.000000e+00,   -1.894699e+02
    5353,    1.788374e+02,   -8.000000e+00,   -2.196510e+02
    5354,    2.130447e+02,   -8.000000e+00,   -1.834662e+02
    5355,    2.142322e+02,   -8.000000e+00,   -2.168002e+02
    5356,    2.106282e+02,   -8.000000e+00,   -1.493860e+02
    5357,    2.103167e+02,   -8.000000e+00,   -1.142292e+02
    5358,    2.111318e+02,   -8.000000e+00,   -7.717347e+01
    5359,    2.134872e+02,   -8.000000e+00,   -3.873703e+01
    5360,    4.538103e+01,   -8.000000e+00,   -2.137852e+02
    5361,    0.000000e+00,   -8.727273e+01,    0.000000e+00
    5362,    0.000000e+00,   -1.018182e+02,    0.000000e+00
    5363,    0.000000e+00,   -1.163636e+02,    0.000000e+00
    5364,    0.000000e+00,   -1.309091e+02,    0.000000e+00
    5365,    0.000000e+00,   -1.454545e+02,    0.000000e+00
    5366,    0.000000e+00,   -1.600000e+02,    0.000000e+00
    5367,    0.000000e+00,   -1.745455e+02,    0.000000e+00
    5368,    0.000000e+00,   -1.890909e+02,    0.000000e+00
    5369,    0.000000e+00,   -2.036364e+02,    0.000000e+00
    5370,    0.000000e+00,   -2.181818e+02,    0.000000e+00
    5371,    0.000000e+00,   -2.327273e+02,    0.000000e+00
    5372,    0.000000e+00,   -8.000000e+01,   -8.250000e+00
    5373,    0.000000e+00,   -8.000000e+01,   -2.750000e+00
    5374,    0.000000e+00,   -2.327273e+02,   -1.100000e+01
    5375,    0.000000e+00,   -2.181818e+02,   -1.100000e+01
    5376,    0.000000e+00,   -2.036364e+02,   -1.100000e+01
    5377,    0.000000e+00,   -1.890909e+02,   -1.100000e+01
    5378,    0.000000e+00,   -1.745455e+02,   -1.100000e+01
    5379,    0.000000e+00,   -1.600000e+02,   -1.100000e+01
    5380,    0.000000e+00,   -1.454545e+02,   -1.100000e+01
    5381,    0.000000e+00,   -1.309091e+02,   -1.100000e+01
    5382,    0.000000e+00,   -1.163636e+02,   -1.100000e+01
    5383,    0.000000e+00,   -1.018182e+02,   -1.100000e+01
    5384,    0.000000e+00,   -8.727273e+01,   -1.100000e+01
    5385,    0.000000e+00,   -2.400000e+02,   -2.750000e+00
    5386,    0.000000e+00,   -2.400000e+02,   -8.250000e+00
    5387,    0.000000e+00,   -2.254545e+02,   -2.750000e+00
    5388,    0.000000e+00,   -2.327273e+02,   -5.500000e+00
    5389,    0.000000e+00,   -2.109091e+02,   -2.750000e+00
    5390,    0.000000e+00,   -2.181818e+02,   -5.500000e+00
    5391,    0.000000e+00,   -1.963636e+02,   -2.750000e+00
    5392,    0.000000e+00,   -2.036364e+02,   -5.500000e+00
    5393,    0.000000e+00,   -1.818182e+02,   -2.750000e+00
    5394,    0.000000e+00,   -1.890909e+02,   -5.500000e+00
    5395,    0.000000e+00,   -1.672727e+02,   -2.750000e+00
    5396,    0.000000e+00,   -1.745455e+02,   -5.500000e+00
    5397,    0.000000e+00,   -1.527273e+02,   -2.750000e+00
    5398,    0.000000e+00,   -1.600000e+02,   -5.500000e+00
    5399,    0.000000e+00,   -1.381818e+02,   -2.750000e+00
    5400,    0.000000e+00,   -1.454545e+02,   -5.500000e+00
    5401,    0.000000e+00,   -1.236364e+02,   -2.750000e+00
    5402,    0.000000e+00,   -1.309091e+02,   -5.500000e+00
    5403,    0.000000e+00,   -1.090909e+02,   -2.750000e+00
    5404,    0.000000e+00,   -1.163636e+02,   -5.500000e+00
    5405,    0.000000e+00,   -9.454545e+01,   -2.750000e+00
    5406,    0.000000e+00,   -1.018182e+02,   -5.500000e+00
    5407,    0.000000e+00,   -8.727273e+01,   -5.500000e+00
    5408,    0.000000e+00,   -2.254545e+02,   -8.250000e+00
    5409,    0.000000e+00,   -2.109091e+02,   -8.250000e+00
    5410,    0.000000e+00,   -1.963636e+02,   -8.250000e+00
    5411,    0.000000e+00,   -1.818182e+02,   -8.250000e+00
    5412,    0.000000e+00,   -1.672727e+02,   -8.250000e+00
    5413,    0.000000e+00,   -1.527273e+02,   -8.250000e+00
    5414,    0.000000e+00,   -1.381818e+02,   -8.250000e+00
    5415,    0.000000e+00,   -1.236364e+02,   -8.250000e+00
    5416,    0.000000e+00,   -1.090909e+02,   -8.250000e+00
    5417,    0.000000e+00,   -9.454545e+01,   -8.250000e+00
    5418,    4.209518e+00,   -8.000000e+01,   -1.016267e+01
    5419,    1.016267e+01,   -8.000000e+01,   -4.209518e+00
    5420,    1.100000e+01,   -2.327273e+02,   -4.453261e-15
    5421,    1.100000e+01,   -2.181818e+02,   -3.562609e-15
    5422,    1.100000e+01,   -2.036364e+02,   -2.671957e-15
    5423,    1.100000e+01,   -1.890909e+02,   -1.781304e-15
    5424,    1.100000e+01,   -1.745455e+02,   -8.906522e-16
    5425,    1.100000e+01,   -1.600000e+02,   -1.663737e-63
    5426,    1.100000e+01,   -1.454545e+02,    8.906522e-16
    5427,    1.100000e+01,   -1.309091e+02,    1.781304e-15
    5428,    1.100000e+01,   -1.163636e+02,    2.671957e-15
    5429,    1.100000e+01,   -1.018182e+02,    3.562609e-15
    5430,    1.100000e+01,   -8.727273e+01,    4.453261e-15
    5431,    1.016267e+01,   -2.400000e+02,   -4.209518e+00
    5432,    4.209518e+00,   -2.400000e+02,   -1.016267e+01
    5433,    4.209518e+00,   -2.254545e+02,   -1.016267e+01
    5434,    7.778175e+00,   -2.327273e+02,   -7.778175e+00
    5435,    4.209518e+00,   -2.109091e+02,   -1.016267e+01
    5436,    7.778175e+00,   -2.181818e+02,   -7.778175e+00
    5437,    4.209518e+00,   -1.963636e+02,   -1.016267e+01
    5438,    7.778175e+00,   -2.036364e+02,   -7.778175e+00
    5439,    4.209518e+00,   -1.818182e+02,   -1.016267e+01
    5440,    7.778175e+00,   -1.890909e+02,   -7.778175e+00
    5441,    4.209518e+00,   -1.672727e+02,   -1.016267e+01
    5442,    7.778175e+00,   -1.745455e+02,   -7.778175e+00
    5443,    4.209518e+00,   -1.527273e+02,   -1.016267e+01
    5444,    7.778175e+00,   -1.600000e+02,   -7.778175e+00
    5445,    4.209518e+00,   -1.381818e+02,   -1.016267e+01
    5446,    7.778175e+00,   -1.454545e+02,   -7.778175e+00
    5447,    4.209518e+00,   -1.236364e+02,   -1.016267e+01
    5448,    7.778175e+00,   -1.309091e+02,   -7.778175e+00
    5449,    4.209518e+00,   -1.090909e+02,   -1.016267e+01
    5450,    7.778175e+00,   -1.163636e+02,   -7.778175e+00
    5451,    4.209518e+00,   -9.454545e+01,   -1.016267e+01
    5452,    7.778175e+00,   -1.018182e+02,   -7.778175e+00
    5453,    7.778175e+00,   -8.727273e+01,   -7.778175e+00
    5454,    1.016267e+01,   -2.254545e+02,   -4.209518e+00
    5455,    1.016267e+01,   -2.109091e+02,   -4.209518e+00
    5456,    1.016267e+01,   -1.963636e+02,   -4.209518e+00
    5457,    1.016267e+01,   -1.818182e+02,   -4.209518e+00
    5458,    1.016267e+01,   -1.672727e+02,   -4.209518e+00
    5459,    1.016267e+01,   -1.527273e+02,   -4.209518e+00
    5460,    1.016267e+01,   -1.381818e+02,   -4.209518e+00
    5461,    1.016267e+01,   -1.236364e+02,   -4.209518e+00
    5462,    1.016267e+01,   -1.090909e+02,   -4.209518e+00
    5463,    1.016267e+01,   -9.454545e+01,   -4.209518e+00
    5464,    8.250000e+00,   -8.000000e+01,    0.000000e+00
    5465,    2.750000e+00,   -8.000000e+01,    0.000000e+00
    5466,    2.213029e+00,   -8.000000e+01,   -4.963029e+00
    5467,    4.963029e+00,   -8.000000e+01,   -2.213029e+00
    5468,    6.102116e+00,   -8.000000e+01,   -6.102116e+00
    5469,    2.750000e+00,   -2.400000e+02,    0.000000e+00
    5470,    8.250000e+00,   -2.400000e+02,    0.000000e+00
    5471,    2.750000e+00,   -9.454545e+01,    0.000000e+00
    5472,    5.500000e+00,   -8.727273e+01,    0.000000e+00
    5473,    2.750000e+00,   -1.090909e+02,    0.000000e+00
    5474,    5.500000e+00,   -1.018182e+02,    0.000000e+00
    5475,    2.750000e+00,   -1.236364e+02,    0.000000e+00
    5476,    5.500000e+00,   -1.163636e+02,    0.000000e+00
    5477,    2.750000e+00,   -1.381818e+02,    0.000000e+00
    5478,    5.500000e+00,   -1.309091e+02,    0.000000e+00
    5479,    2.750000e+00,   -1.527273e+02,    0.000000e+00
    5480,    5.500000e+00,   -1.454545e+02,    0.000000e+00
    5481,    2.750000e+00,   -1.672727e+02,    0.000000e+00
    5482,    5.500000e+00,   -1.600000e+02,    0.000000e+00
    5483,    2.750000e+00,   -1.818182e+02,    0.000000e+00
    5484,    5.500000e+00,   -1.745455e+02,    0.000000e+00
    5485,    2.750000e+00,   -1.963636e+02,    0.000000e+00
    5486,    5.500000e+00,   -1.890909e+02,    0.000000e+00
    5487,    2.750000e+00,   -2.109091e+02,    0.000000e+00
    5488,    5.500000e+00,   -2.036364e+02,    0.000000e+00
    5489,    2.750000e+00,   -2.254545e+02,    0.000000e+00
    5490,    5.500000e+00,   -2.181818e+02,    0.000000e+00
    5491,    5.500000e+00,   -2.327273e+02,    0.000000e+00
    5492,    8.250000e+00,   -9.454545e+01,    0.000000e+00
    5493,    8.250000e+00,   -1.090909e+02,    0.000000e+00
    5494,    8.250000e+00,   -1.236364e+02,    0.000000e+00
    5495,    8.250000e+00,   -1.381818e+02,    0.000000e+00
    5496,    8.250000e+00,   -1.527273e+02,    0.000000e+00
    5497,    8.250000e+00,   -1.672727e+02,    0.000000e+00
    5498,    8.250000e+00,   -1.818182e+02,    0.000000e+00
    5499,    8.250000e+00,   -1.963636e+02,    0.000000e+00
    5500,    8.250000e+00,   -2.109091e+02,    0.000000e+00
    5501,    8.250000e+00,   -2.254545e+02,    0.000000e+00
    5502,    4.963029e+00,   -2.400000e+02,   -2.213029e+00
    5503,    6.102116e+00,   -2.400000e+02,   -6.102116e+00
    5504,    2.213029e+00,   -2.400000e+02,   -4.963029e+00
    5505,    6.102116e+00,   -9.454545e+01,   -6.102116e+00
    5506,    4.963029e+00,   -9.454545e+01,   -2.213029e+00
    5507,    4.426058e+00,   -8.727273e+01,   -4.426058e+00
    5508,    2.213029e+00,   -9.454545e+01,   -4.963029e+00
    5509,    6.102116e+00,   -1.090909e+02,   -6.102116e+00
    5510,    4.963029e+00,   -1.090909e+02,   -2.213029e+00
    5511,    4.426058e+00,   -1.018182e+02,   -4.426058e+00
    5512,    2.213029e+00,   -1.090909e+02,   -4.963029e+00
    5513,    6.102116e+00,   -1.236364e+02,   -6.102116e+00
    5514,    4.963029e+00,   -1.236364e+02,   -2.213029e+00
    5515,    4.426058e+00,   -1.163636e+02,   -4.426058e+00
    5516,    2.213029e+00,   -1.236364e+02,   -4.963029e+00
    5517,    6.102116e+00,   -1.381818e+02,   -6.102116e+00
    5518,    4.963029e+00,   -1.381818e+02,   -2.213029e+00
    5519,    4.426058e+00,   -1.309091e+02,   -4.426058e+00
    5520,    2.213029e+00,   -1.381818e+02,   -4.963029e+00
    5521,    6.102116e+00,   -1.527273e+02,   -6.102116e+00
    5522,    4.963029e+00,   -1.527273e+02,   -2.213029e+00
    5523,    4.426058e+00,   -1.454545e+02,   -4.426058e+00
    5524,    2.213029e+00,   -1.527273e+02,   -4.963029e+00
    5525,    6.102116e+00,   -1.672727e+02,   -6.102116e+00
    5526,    4.963029e+00,   -1.672727e+02,   -2.213029e+00
    5527,    4.426058e+00,   -1.600000e+02,   -4.426058e+00
    5528,    2.213029e+00,   -1.672727e+02,   -4.963029e+00
    5529,    6.102116e+00,   -1.818182e+02,   -6.102116e+00
    5530,    4.963029e+00,   -1.818182e+02,   -2.213029e+00
    5531,    4.426058e+00,   -1.745455e+02,   -4.426058e+00
    5532,    2.213029e+00,   -1.818182e+02,   -4.963029e+00
    5533,    6.102116e+00,   -1.963636e+02,   -6.102116e+00
    5534,    4.963029e+00,   -1.963636e+02,   -2.213029e+00
    5535,    4.426058e+00,   -1.890909e+02,   -4.426058e+00
    5536,    2.213029e+00,   -1.963636e+02,   -4.963029e+00
    5537,    6.102116e+00,   -2.109091e+02,   -6.102116e+00
    5538,    4.963029e+00,   -2.109091e+02,   -2.213029e+00
    5539,    4.426058e+00,   -2.036364e+02,   -4.426058e+00
    5540,    2.213029e+00,   -2.109091e+02,   -4.963029e+00
    5541,    6.102116e+00,   -2.254545e+02,   -6.102116e+00
    5542,    4.963029e+00,   -2.254545e+02,   -2.213029e+00
    5543,    4.426058e+00,   -2.181818e+02,   -4.426058e+00
    5544,    2.213029e+00,   -2.254545e+02,   -4.963029e+00
    5545,    4.426058e+00,   -2.327273e+02,   -4.426058e+00
    5546,    0.000000e+00,   -8.000000e+01,   -1.109167e+02
    5547,    0.000000e+00,   -8.000000e+01,   -9.275000e+01
    5548,    0.000000e+00,   -8.000000e+01,   -7.458333e+01
    5549,    0.000000e+00,   -8.000000e+01,   -5.641667e+01
    5550,    0.000000e+00,   -8.000000e+01,   -3.825000e+01
    5551,    0.000000e+00,   -8.000000e+01,   -2.008333e+01
    5552,    0.000000e+00,   -2.400000e+02,   -2.008333e+01
    5553,    0.000000e+00,   -2.400000e+02,   -3.825000e+01
    5554,    0.000000e+00,   -2.400000e+02,   -5.641667e+01
    5555,    0.000000e+00,   -2.400000e+02,   -7.458333e+01
    5556,    0.000000e+00,   -2.400000e+02,   -9.275000e+01
    5557,    0.000000e+00,   -2.400000e+02,   -1.109167e+02
    5558,    0.000000e+00,   -8.727273e+01,   -2.916667e+01
    5559,    0.000000e+00,   -9.454545e+01,   -2.008333e+01
    5560,    0.000000e+00,   -8.727273e+01,   -4.733333e+01
    5561,    0.000000e+00,   -9.454545e+01,   -3.825000e+01
    5562,    0.000000e+00,   -8.727273e+01,   -6.550000e+01
    5563,    0.000000e+00,   -9.454545e+01,   -5.641667e+01
    5564,    0.000000e+00,   -8.727273e+01,   -8.366667e+01
    5565,    0.000000e+00,   -9.454545e+01,   -7.458333e+01
    5566,    0.000000e+00,   -8.727273e+01,   -1.018333e+02
    5567,    0.000000e+00,   -9.454545e+01,   -9.275000e+01
    5568,    0.000000e+00,   -9.454545e+01,   -1.109167e+02
    5569,    0.000000e+00,   -1.018182e+02,   -2.916667e+01
    5570,    0.000000e+00,   -1.090909e+02,   -2.008333e+01
    5571,    0.000000e+00,   -1.018182e+02,   -4.733333e+01
    5572,    0.000000e+00,   -1.090909e+02,   -3.825000e+01
    5573,    0.000000e+00,   -1.018182e+02,   -6.550000e+01
    5574,    0.000000e+00,   -1.090909e+02,   -5.641667e+01
    5575,    0.000000e+00,   -1.018182e+02,   -8.366667e+01
    5576,    0.000000e+00,   -1.090909e+02,   -7.458333e+01
    5577,    0.000000e+00,   -1.018182e+02,   -1.018333e+02
    5578,    0.000000e+00,   -1.090909e+02,   -9.275000e+01
    5579,    0.000000e+00,   -1.090909e+02,   -1.109167e+02
    5580,    0.000000e+00,   -1.163636e+02,   -2.916667e+01
    5581,    0.000000e+00,   -1.236364e+02,   -2.008333e+01
    5582,    0.000000e+00,   -1.163636e+02,   -4.733333e+01
    5583,    0.000000e+00,   -1.236364e+02,   -3.825000e+01
    5584,    0.000000e+00,   -1.163636e+02,   -6.550000e+01
    5585,    0.000000e+00,   -1.236364e+02,   -5.641667e+01
    5586,    0.000000e+00,   -1.163636e+02,   -8.366667e+01
    5587,    0.000000e+00,   -1.236364e+02,   -7.458333e+01
    5588,    0.000000e+00,   -1.163636e+02,   -1.018333e+02
    5589,    0.000000e+00,   -1.236364e+02,   -9.275000e+01
    5590,    0.000000e+00,   -1.236364e+02,   -1.109167e+02
    5591,    0.000000e+00,   -1.309091e+02,   -2.916667e+01
    5592,    0.000000e+00,   -1.381818e+02,   -2.008333e+01
    5593,    0.000000e+00,   -1.309091e+02,   -4.733333e+01
    5594,    0.000000e+00,   -1.381818e+02,   -3.825000e+01
    5595,    0.000000e+00,   -1.309091e+02,   -6.550000e+01
    5596,    0.000000e+00,   -1.381818e+02,   -5.641667e+01
    5597,    0.000000e+00,   -1.309091e+02,   -8.366667e+01
    5598,    0.000000e+00,   -1.381818e+02,   -7.458333e+01
    5599,    0.000000e+00,   -1.309091e+02,   -1.018333e+02
    5600,    0.000000e+00,   -1.381818e+02,   -9.275000e+01
    5601,    0.000000e+00,   -1.381818e+02,   -1.109167e+02
    5602,    0.000000e+00,   -1.454545e+02,   -2.916667e+01
    5603,    0.000000e+00,   -1.527273e+02,   -2.008333e+01
    5604,    0.000000e+00,   -1.454545e+02,   -4.733333e+01
    5605,    0.000000e+00,   -1.527273e+02,   -3.825000e+01
    5606,    0.000000e+00,   -1.454545e+02,   -6.550000e+01
    5607,    0.000000e+00,   -1.527273e+02,   -5.641667e+01
    5608,    0.000000e+00,   -1.454545e+02,   -8.366667e+01
    5609,    0.000000e+00,   -1.527273e+02,   -7.458333e+01
    5610,    0.000000e+00,   -1.454545e+02,   -1.018333e+02
    5611,    0.000000e+00,   -1.527273e+02,   -9.275000e+01
    5612,    0.000000e+00,   -1.527273e+02,   -1.109167e+02
    5613,    0.000000e+00,   -1.600000e+02,   -2.916667e+01
    5614,    0.000000e+00,   -1.672727e+02,   -2.008333e+01
    5615,    0.000000e+00,   -1.600000e+02,   -4.733333e+01
    5616,    0.000000e+00,   -1.672727e+02,   -3.825000e+01
    5617,    0.000000e+00,   -1.600000e+02,   -6.550000e+01
    5618,    0.000000e+00,   -1.672727e+02,   -5.641667e+01
    5619,    0.000000e+00,   -1.600000e+02,   -8.366667e+01
    5620,    0.000000e+00,   -1.672727e+02,   -7.458333e+01
    5621,    0.000000e+00,   -1.600000e+02,   -1.018333e+02
    5622,    0.000000e+00,   -1.672727e+02,   -9.275000e+01
    5623,    0.000000e+00,   -1.672727e+02,   -1.109167e+02
    5624,    0.000000e+00,   -1.745455e+02,   -2.916667e+01
    5625,    0.000000e+00,   -1.818182e+02,   -2.008333e+01
    5626,    0.000000e+00,   -1.745455e+02,   -4.733333e+01
    5627,    0.000000e+00,   -1.818182e+02,   -3.825000e+01
    5628,    0.000000e+00,   -1.745455e+02,   -6.550000e+01
    5629,    0.000000e+00,   -1.818182e+02,   -5.641667e+01
    5630,    0.000000e+00,   -1.745455e+02,   -8.366667e+01
    5631,    0.000000e+00,   -1.818182e+02,   -7.458333e+01
    5632,    0.000000e+00,   -1.745455e+02,   -1.018333e+02
    5633,    0.000000e+00,   -1.818182e+02,   -9.275000e+01
    5634,    0.000000e+00,   -1.818182e+02,   -1.109167e+02
    5635,    0.000000e+00,   -1.890909e+02,   -2.916667e+01
    5636,    0.000000e+00,   -1.963636e+02,   -2.008333e+01
    5637,    0.000000e+00,   -1.890909e+02,   -4.733333e+01
    5638,    0.000000e+00,   -1.963636e+02,   -3.825000e+01
    5639,    0.000000e+00,   -1.890909e+02,   -6.550000e+01
    5640,    0.000000e+00,   -1.963636e+02,   -5.641667e+01
    5641,    0.000000e+00,   -1.890909e+02,   -8.366667e+01
    5642,    0.000000e+00,   -1.963636e+02,   -7.458333e+01
    5643,    0.000000e+00,   -1.890909e+02,   -1.018333e+02
    5644,    0.000000e+00,   -1.963636e+02,   -9.275000e+01
    5645,    0.000000e+00,   -1.963636e+02,   -1.109167e+02
    5646,    0.000000e+00,   -2.036364e+02,   -2.916667e+01
    5647,    0.000000e+00,   -2.109091e+02,   -2.008333e+01
    5648,    0.000000e+00,   -2.036364e+02,   -4.733333e+01
    5649,    0.000000e+00,   -2.109091e+02,   -3.825000e+01
    5650,    0.000000e+00,   -2.036364e+02,   -6.550000e+01
    5651,    0.000000e+00,   -2.109091e+02,   -5.641667e+01
    5652,    0.000000e+00,   -2.036364e+02,   -8.366667e+01
    5653,    0.000000e+00,   -2.109091e+02,   -7.458333e+01
    5654,    0.000000e+00,   -2.036364e+02,   -1.018333e+02
    5655,    0.000000e+00,   -2.109091e+02,   -9.275000e+01
    5656,    0.000000e+00,   -2.109091e+02,   -1.109167e+02
    5657,    0.000000e+00,   -2.181818e+02,   -2.916667e+01
    5658,    0.000000e+00,   -2.254545e+02,   -2.008333e+01
    5659,    0.000000e+00,   -2.181818e+02,   -4.733333e+01
    5660,    0.000000e+00,   -2.254545e+02,   -3.825000e+01
    5661,    0.000000e+00,   -2.181818e+02,   -6.550000e+01
    5662,    0.000000e+00,   -2.254545e+02,   -5.641667e+01
    5663,    0.000000e+00,   -2.181818e+02,   -8.366667e+01
    5664,    0.000000e+00,   -2.254545e+02,   -7.458333e+01
    5665,    0.000000e+00,   -2.181818e+02,   -1.018333e+02
    5666,    0.000000e+00,   -2.254545e+02,   -9.275000e+01
    5667,    0.000000e+00,   -2.254545e+02,   -1.109167e+02
    5668,    0.000000e+00,   -2.327273e+02,   -2.916667e+01
    5669,    0.000000e+00,   -2.327273e+02,   -4.733333e+01
    5670,    0.000000e+00,   -2.327273e+02,   -6.550000e+01
    5671,    0.000000e+00,   -2.327273e+02,   -8.366667e+01
    5672,    0.000000e+00,   -2.327273e+02,   -1.018333e+02
    5673,    2.008333e+01,   -2.400000e+02,    0.000000e+00
    5674,    3.825000e+01,   -2.400000e+02,    0.000000e+00
    5675,    5.641667e+01,   -2.400000e+02,    0.000000e+00
    5676,    7.458333e+01,   -2.400000e+02,    0.000000e+00
    5677,    9.275000e+01,   -2.400000e+02,    0.000000e+00
    5678,    1.109167e+02,   -2.400000e+02,    0.000000e+00
    5679,    1.031197e+01,   -2.400000e+02,   -2.489531e+01
    5680,    1.420106e+01,   -2.400000e+02,   -1.420106e+01
    5681,    1.673486e+01,   -2.400000e+02,   -4.040153e+01
    5682,    2.704683e+01,   -2.400000e+02,   -2.704683e+01
    5683,    2.315775e+01,   -2.400000e+02,   -5.590775e+01
    5684,    3.989261e+01,   -2.400000e+02,   -3.989261e+01
    5685,    2.958063e+01,   -2.400000e+02,   -7.141397e+01
    5686,    5.273838e+01,   -2.400000e+02,   -5.273838e+01
    5687,    3.600352e+01,   -2.400000e+02,   -8.692019e+01
    5688,    6.558415e+01,   -2.400000e+02,   -6.558415e+01
    5689,    7.842993e+01,   -2.400000e+02,   -7.842993e+01
    5690,    2.489531e+01,   -2.400000e+02,   -1.031197e+01
    5691,    4.040153e+01,   -2.400000e+02,   -1.673486e+01
    5692,    5.590775e+01,   -2.400000e+02,   -2.315775e+01
    5693,    7.141397e+01,   -2.400000e+02,   -2.958063e+01
    5694,    8.692019e+01,   -2.400000e+02,   -3.600352e+01
    5695,    1.109167e+02,   -8.000000e+01,    0.000000e+00
    5696,    9.275000e+01,   -8.000000e+01,    0.000000e+00
    5697,    7.458333e+01,   -8.000000e+01,    0.000000e+00
    5698,    5.641667e+01,   -8.000000e+01,    0.000000e+00
    5699,    3.825000e+01,   -8.000000e+01,    0.000000e+00
    5700,    2.008333e+01,   -8.000000e+01,    0.000000e+00
    5701,    1.109167e+02,   -2.254545e+02,    0.000000e+00
    5702,    1.018333e+02,   -2.327273e+02,    0.000000e+00
    5703,    1.109167e+02,   -2.109091e+02,    0.000000e+00
    5704,    1.018333e+02,   -2.181818e+02,    0.000000e+00
    5705,    1.109167e+02,   -1.963636e+02,    0.000000e+00
    5706,    1.018333e+02,   -2.036364e+02,    0.000000e+00
    5707,    1.109167e+02,   -1.818182e+02,    0.000000e+00
    5708,    1.018333e+02,   -1.890909e+02,    0.000000e+00
    5709,    1.109167e+02,   -1.672727e+02,    0.000000e+00
    5710,    1.018333e+02,   -1.745455e+02,    0.000000e+00
    5711,    1.109167e+02,   -1.527273e+02,    0.000000e+00
    5712,    1.018333e+02,   -1.600000e+02,    0.000000e+00
    5713,    1.109167e+02,   -1.381818e+02,    0.000000e+00
    5714,    1.018333e+02,   -1.454545e+02,    0.000000e+00
    5715,    1.109167e+02,   -1.236364e+02,    0.000000e+00
    5716,    1.018333e+02,   -1.309091e+02,    0.000000e+00
    5717,    1.109167e+02,   -1.090909e+02,    0.000000e+00
    5718,    1.018333e+02,   -1.163636e+02,    0.000000e+00
    5719,    1.109167e+02,   -9.454545e+01,    0.000000e+00
    5720,    1.018333e+02,   -1.018182e+02,    0.000000e+00
    5721,    1.018333e+02,   -8.727273e+01,    0.000000e+00
    5722,    9.275000e+01,   -2.254545e+02,    0.000000e+00
    5723,    8.366667e+01,   -2.327273e+02,    0.000000e+00
    5724,    9.275000e+01,   -2.109091e+02,    0.000000e+00
    5725,    8.366667e+01,   -2.181818e+02,    0.000000e+00
    5726,    9.275000e+01,   -1.963636e+02,    0.000000e+00
    5727,    8.366667e+01,   -2.036364e+02,    0.000000e+00
    5728,    9.275000e+01,   -1.818182e+02,    0.000000e+00
    5729,    8.366667e+01,   -1.890909e+02,    0.000000e+00
    5730,    9.275000e+01,   -1.672727e+02,    0.000000e+00
    5731,    8.366667e+01,   -1.745455e+02,    0.000000e+00
    5732,    9.275000e+01,   -1.527273e+02,    0.000000e+00
    5733,    8.366667e+01,   -1.600000e+02,    0.000000e+00
    5734,    9.275000e+01,   -1.381818e+02,    0.000000e+00
    5735,    8.366667e+01,   -1.454545e+02,    0.000000e+00
    5736,    9.275000e+01,   -1.236364e+02,    0.000000e+00
    5737,    8.366667e+01,   -1.309091e+02,    0.000000e+00
    5738,    9.275000e+01,   -1.090909e+02,    0.000000e+00
    5739,    8.366667e+01,   -1.163636e+02,    0.000000e+00
    5740,    9.275000e+01,   -9.454545e+01,    0.000000e+00
    5741,    8.366667e+01,   -1.018182e+02,    0.000000e+00
    5742,    8.366667e+01,   -8.727273e+01,    0.000000e+00
    5743,    7.458333e+01,   -2.254545e+02,    0.000000e+00
    5744,    6.550000e+01,   -2.327273e+02,    0.000000e+00
    5745,    7.458333e+01,   -2.109091e+02,    0.000000e+00
    5746,    6.550000e+01,   -2.181818e+02,    0.000000e+00
    5747,    7.458333e+01,   -1.963636e+02,    0.000000e+00
    5748,    6.550000e+01,   -2.036364e+02,    0.000000e+00
    5749,    7.458333e+01,   -1.818182e+02,    0.000000e+00
    5750,    6.550000e+01,   -1.890909e+02,    0.000000e+00
    5751,    7.458333e+01,   -1.672727e+02,    0.000000e+00
    5752,    6.550000e+01,   -1.745455e+02,    0.000000e+00
    5753,    7.458333e+01,   -1.527273e+02,    0.000000e+00
    5754,    6.550000e+01,   -1.600000e+02,    0.000000e+00
    5755,    7.458333e+01,   -1.381818e+02,    0.000000e+00
    5756,    6.550000e+01,   -1.454545e+02,    0.000000e+00
    5757,    7.458333e+01,   -1.236364e+02,    0.000000e+00
    5758,    6.550000e+01,   -1.309091e+02,    0.000000e+00
    5759,    7.458333e+01,   -1.090909e+02,    0.000000e+00
    5760,    6.550000e+01,   -1.163636e+02,    0.000000e+00
    5761,    7.458333e+01,   -9.454545e+01,    0.000000e+00
    5762,    6.550000e+01,   -1.018182e+02,    0.000000e+00
    5763,    6.550000e+01,   -8.727273e+01,    0.000000e+00
    5764,    5.641667e+01,   -2.254545e+02,    0.000000e+00
    5765,    4.733333e+01,   -2.327273e+02,    0.000000e+00
    5766,    5.641667e+01,   -2.109091e+02,    0.000000e+00
    5767,    4.733333e+01,   -2.181818e+02,    0.000000e+00
    5768,    5.641667e+01,   -1.963636e+02,    0.000000e+00
    5769,    4.733333e+01,   -2.036364e+02,    0.000000e+00
    5770,    5.641667e+01,   -1.818182e+02,    0.000000e+00
    5771,    4.733333e+01,   -1.890909e+02,    0.000000e+00
    5772,    5.641667e+01,   -1.672727e+02,    0.000000e+00
    5773,    4.733333e+01,   -1.745455e+02,    0.000000e+00
    5774,    5.641667e+01,   -1.527273e+02,    0.000000e+00
    5775,    4.733333e+01,   -1.600000e+02,    0.000000e+00
    5776,    5.641667e+01,   -1.381818e+02,    0.000000e+00
    5777,    4.733333e+01,   -1.454545e+02,    0.000000e+00
    5778,    5.641667e+01,   -1.236364e+02,    0.000000e+00
    5779,    4.733333e+01,   -1.309091e+02,    0.000000e+00
    5780,    5.641667e+01,   -1.090909e+02,    0.000000e+00
    5781,    4.733333e+01,   -1.163636e+02,    0.000000e+00
    5782,    5.641667e+01,   -9.454545e+01,    0.000000e+00
    5783,    4.733333e+01,   -1.018182e+02,    0.000000e+00
    5784,    4.733333e+01,   -8.727273e+01,    0.000000e+00
    5785,    3.825000e+01,   -2.254545e+02,    0.000000e+00
    5786,    2.916667e+01,   -2.327273e+02,    0.000000e+00
    5787,    3.825000e+01,   -2.109091e+02,    0.000000e+00
    5788,    2.916667e+01,   -2.181818e+02,    0.000000e+00
    5789,    3.825000e+01,   -1.963636e+02,    0.000000e+00
    5790,    2.916667e+01,   -2.036364e+02,    0.000000e+00
    5791,    3.825000e+01,   -1.818182e+02,    0.000000e+00
    5792,    2.916667e+01,   -1.890909e+02,    0.000000e+00
    5793,    3.825000e+01,   -1.672727e+02,    0.000000e+00
    5794,    2.916667e+01,   -1.745455e+02,    0.000000e+00
    5795,    3.825000e+01,   -1.527273e+02,    0.000000e+00
    5796,    2.916667e+01,   -1.600000e+02,    0.000000e+00
    5797,    3.825000e+01,   -1.381818e+02,    0.000000e+00
    5798,    2.916667e+01,   -1.454545e+02,    0.000000e+00
    5799,    3.825000e+01,   -1.236364e+02,    0.000000e+00
    5800,    2.916667e+01,   -1.309091e+02,    0.000000e+00
    5801,    3.825000e+01,   -1.090909e+02,    0.000000e+00
    5802,    2.916667e+01,   -1.163636e+02,    0.000000e+00
    5803,    3.825000e+01,   -9.454545e+01,    0.000000e+00
    5804,    2.916667e+01,   -1.018182e+02,    0.000000e+00
    5805,    2.916667e+01,   -8.727273e+01,    0.000000e+00
    5806,    2.008333e+01,   -2.254545e+02,    0.000000e+00
    5807,    2.008333e+01,   -2.109091e+02,    0.000000e+00
    5808,    2.008333e+01,   -1.963636e+02,    0.000000e+00
    5809,    2.008333e+01,   -1.818182e+02,    0.000000e+00
    5810,    2.008333e+01,   -1.672727e+02,    0.000000e+00
    5811,    2.008333e+01,   -1.527273e+02,    0.000000e+00
    5812,    2.008333e+01,   -1.381818e+02,    0.000000e+00
    5813,    2.008333e+01,   -1.236364e+02,    0.000000e+00
    5814,    2.008333e+01,   -1.090909e+02,    0.000000e+00
    5815,    2.008333e+01,   -9.454545e+01,    0.000000e+00
    5816,    3.600352e+01,   -8.000000e+01,   -8.692019e+01
    5817,    7.842993e+01,   -8.000000e+01,   -7.842993e+01
    5818,    2.958063e+01,   -8.000000e+01,   -7.141397e+01
    5819,    6.558415e+01,   -8.000000e+01,   -6.558415e+01
    5820,    2.315775e+01,   -8.000000e+01,   -5.590775e+01
    5821,    5.273838e+01,   -8.000000e+01,   -5.273838e+01
    5822,    1.673486e+01,   -8.000000e+01,   -4.040153e+01
    5823,    3.989261e+01,   -8.000000e+01,   -3.989261e+01
    5824,    1.031197e+01,   -8.000000e+01,   -2.489531e+01
    5825,    2.704683e+01,   -8.000000e+01,   -2.704683e+01
    5826,    1.420106e+01,   -8.000000e+01,   -1.420106e+01
    5827,    8.692019e+01,   -8.000000e+01,   -3.600352e+01
    5828,    7.141397e+01,   -8.000000e+01,   -2.958063e+01
    5829,    5.590775e+01,   -8.000000e+01,   -2.315775e+01
    5830,    4.040153e+01,   -8.000000e+01,   -1.673486e+01
    5831,    2.489531e+01,   -8.000000e+01,   -1.031197e+01
    5832,    7.200704e+01,   -2.327273e+02,   -7.200704e+01
    5833,    3.600352e+01,   -2.254545e+02,   -8.692019e+01
    5834,    7.842993e+01,   -2.254545e+02,   -7.842993e+01
    5835,    5.916127e+01,   -2.327273e+02,   -5.916127e+01
    5836,    2.958063e+01,   -2.254545e+02,   -7.141397e+01
    5837,    6.558415e+01,   -2.254545e+02,   -6.558415e+01
    5838,    4.631549e+01,   -2.327273e+02,   -4.631549e+01
    5839,    2.315775e+01,   -2.254545e+02,   -5.590775e+01
    5840,    5.273838e+01,   -2.254545e+02,   -5.273838e+01
    5841,    3.346972e+01,   -2.327273e+02,   -3.346972e+01
    5842,    1.673486e+01,   -2.254545e+02,   -4.040153e+01
    5843,    3.989261e+01,   -2.254545e+02,   -3.989261e+01
    5844,    2.062395e+01,   -2.327273e+02,   -2.062395e+01
    5845,    1.031197e+01,   -2.254545e+02,   -2.489531e+01
    5846,    2.704683e+01,   -2.254545e+02,   -2.704683e+01
    5847,    1.420106e+01,   -2.254545e+02,   -1.420106e+01
    5848,    8.692019e+01,   -2.254545e+02,   -3.600352e+01
    5849,    7.141397e+01,   -2.254545e+02,   -2.958063e+01
    5850,    5.590775e+01,   -2.254545e+02,   -2.315775e+01
    5851,    4.040153e+01,   -2.254545e+02,   -1.673486e+01
    5852,    2.489531e+01,   -2.254545e+02,   -1.031197e+01
    5853,    7.200704e+01,   -2.181818e+02,   -7.200704e+01
    5854,    3.600352e+01,   -2.109091e+02,   -8.692019e+01
    5855,    7.842993e+01,   -2.109091e+02,   -7.842993e+01
    5856,    5.916127e+01,   -2.181818e+02,   -5.916127e+01
    5857,    2.958063e+01,   -2.109091e+02,   -7.141397e+01
    5858,    6.558415e+01,   -2.109091e+02,   -6.558415e+01
    5859,    4.631549e+01,   -2.181818e+02,   -4.631549e+01
    5860,    2.315775e+01,   -2.109091e+02,   -5.590775e+01
    5861,    5.273838e+01,   -2.109091e+02,   -5.273838e+01
    5862,    3.346972e+01,   -2.181818e+02,   -3.346972e+01
    5863,    1.673486e+01,   -2.109091e+02,   -4.040153e+01
    5864,    3.989261e+01,   -2.109091e+02,   -3.989261e+01
    5865,    2.062395e+01,   -2.181818e+02,   -2.062395e+01
    5866,    1.031197e+01,   -2.109091e+02,   -2.489531e+01
    5867,    2.704683e+01,   -2.109091e+02,   -2.704683e+01
    5868,    1.420106e+01,   -2.109091e+02,   -1.420106e+01
    5869,    8.692019e+01,   -2.109091e+02,   -3.600352e+01
    5870,    7.141397e+01,   -2.109091e+02,   -2.958063e+01
    5871,    5.590775e+01,   -2.109091e+02,   -2.315775e+01
    5872,    4.040153e+01,   -2.109091e+02,   -1.673486e+01
    5873,    2.489531e+01,   -2.109091e+02,   -1.031197e+01
    5874,    7.200704e+01,   -2.036364e+02,   -7.200704e+01
    5875,    3.600352e+01,   -1.963636e+02,   -8.692019e+01
    5876,    7.842993e+01,   -1.963636e+02,   -7.842993e+01
    5877,    5.916127e+01,   -2.036364e+02,   -5.916127e+01
    5878,    2.958063e+01,   -1.963636e+02,   -7.141397e+01
    5879,    6.558415e+01,   -1.963636e+02,   -6.558415e+01
    5880,    4.631549e+01,   -2.036364e+02,   -4.631549e+01
    5881,    2.315775e+01,   -1.963636e+02,   -5.590775e+01
    5882,    5.273838e+01,   -1.963636e+02,   -5.273838e+01
    5883,    3.346972e+01,   -2.036364e+02,   -3.346972e+01
    5884,    1.673486e+01,   -1.963636e+02,   -4.040153e+01
    5885,    3.989261e+01,   -1.963636e+02,   -3.989261e+01
    5886,    2.062395e+01,   -2.036364e+02,   -2.062395e+01
    5887,    1.031197e+01,   -1.963636e+02,   -2.489531e+01
    5888,    2.704683e+01,   -1.963636e+02,   -2.704683e+01
    5889,    1.420106e+01,   -1.963636e+02,   -1.420106e+01
    5890,    8.692019e+01,   -1.963636e+02,   -3.600352e+01
    5891,    7.141397e+01,   -1.963636e+02,   -2.958063e+01
    5892,    5.590775e+01,   -1.963636e+02,   -2.315775e+01
    5893,    4.040153e+01,   -1.963636e+02,   -1.673486e+01
    5894,    2.489531e+01,   -1.963636e+02,   -1.031197e+01
    5895,    7.200704e+01,   -1.890909e+02,   -7.200704e+01
    5896,    3.600352e+01,   -1.818182e+02,   -8.692019e+01
    5897,    7.842993e+01,   -1.818182e+02,   -7.842993e+01
    5898,    5.916127e+01,   -1.890909e+02,   -5.916127e+01
    5899,    2.958063e+01,   -1.818182e+02,   -7.141397e+01
    5900,    6.558415e+01,   -1.818182e+02,   -6.558415e+01
    5901,    4.631549e+01,   -1.890909e+02,   -4.631549e+01
    5902,    2.315775e+01,   -1.818182e+02,   -5.590775e+01
    5903,    5.273838e+01,   -1.818182e+02,   -5.273838e+01
    5904,    3.346972e+01,   -1.890909e+02,   -3.346972e+01
    5905,    1.673486e+01,   -1.818182e+02,   -4.040153e+01
    5906,    3.989261e+01,   -1.818182e+02,   -3.989261e+01
    5907,    2.062395e+01,   -1.890909e+02,   -2.062395e+01
    5908,    1.031197e+01,   -1.818182e+02,   -2.489531e+01
    5909,    2.704683e+01,   -1.818182e+02,   -2.704683e+01
    5910,    1.420106e+01,   -1.818182e+02,   -1.420106e+01
    5911,    8.692019e+01,   -1.818182e+02,   -3.600352e+01
    5912,    7.141397e+01,   -1.818182e+02,   -2.958063e+01
    5913,    5.590775e+01,   -1.818182e+02,   -2.315775e+01
    5914,    4.040153e+01,   -1.818182e+02,   -1.673486e+01
    5915,    2.489531e+01,   -1.818182e+02,   -1.031197e+01
    5916,    7.200704e+01,   -1.745455e+02,   -7.200704e+01
    5917,    3.600352e+01,   -1.672727e+02,   -8.692019e+01
    5918,    7.842993e+01,   -1.672727e+02,   -7.842993e+01
    5919,    5.916127e+01,   -1.745455e+02,   -5.916127e+01
    5920,    2.958063e+01,   -1.672727e+02,   -7.141397e+01
    5921,    6.558415e+01,   -1.672727e+02,   -6.558415e+01
    5922,    4.631549e+01,   -1.745455e+02,   -4.631549e+01
    5923,    2.315775e+01,   -1.672727e+02,   -5.590775e+01
    5924,    5.273838e+01,   -1.672727e+02,   -5.273838e+01
    5925,    3.346972e+01,   -1.745455e+02,   -3.346972e+01
    5926,    1.673486e+01,   -1.672727e+02,   -4.040153e+01
    5927,    3.989261e+01,   -1.672727e+02,   -3.989261e+01
    5928,    2.062395e+01,   -1.745455e+02,   -2.062395e+01
    5929,    1.031197e+01,   -1.672727e+02,   -2.489531e+01
    5930,    2.704683e+01,   -1.672727e+02,   -2.704683e+01
    5931,    1.420106e+01,   -1.672727e+02,   -1.420106e+01
    5932,    8.692019e+01,   -1.672727e+02,   -3.600352e+01
    5933,    7.141397e+01,   -1.672727e+02,   -2.958063e+01
    5934,    5.590775e+01,   -1.672727e+02,   -2.315775e+01
    5935,    4.040153e+01,   -1.672727e+02,   -1.673486e+01
    5936,    2.489531e+01,   -1.672727e+02,   -1.031197e+01
    5937,    7.200704e+01,   -1.600000e+02,   -7.200704e+01
    5938,    3.600352e+01,   -1.527273e+02,   -8.692019e+01
    5939,    7.842993e+01,   -1.527273e+02,   -7.842993e+01
    5940,    5.916127e+01,   -1.600000e+02,   -5.916127e+01
    5941,    2.958063e+01,   -1.527273e+02,   -7.141397e+01
    5942,    6.558415e+01,   -1.527273e+02,   -6.558415e+01
    5943,    4.631549e+01,   -1.600000e+02,   -4.631549e+01
    5944,    2.315775e+01,   -1.527273e+02,   -5.590775e+01
    5945,    5.273838e+01,   -1.527273e+02,   -5.273838e+01
    5946,    3.346972e+01,   -1.600000e+02,   -3.346972e+01
    5947,    1.673486e+01,   -1.527273e+02,   -4.040153e+01
    5948,    3.989261e+01,   -1.527273e+02,   -3.989261e+01
    5949,    2.062395e+01,   -1.600000e+02,   -2.062395e+01
    5950,    1.031197e+01,   -1.527273e+02,   -2.489531e+01
    5951,    2.704683e+01,   -1.527273e+02,   -2.704683e+01
    5952,    1.420106e+01,   -1.527273e+02,   -1.420106e+01
    5953,    8.692019e+01,   -1.527273e+02,   -3.600352e+01
    5954,    7.141397e+01,   -1.527273e+02,   -2.958063e+01
    5955,    5.590775e+01,   -1.527273e+02,   -2.315775e+01
    5956,    4.040153e+01,   -1.527273e+02,   -1.673486e+01
    5957,    2.489531e+01,   -1.527273e+02,   -1.031197e+01
    5958,    7.200704e+01,   -1.454545e+02,   -7.200704e+01
    5959,    3.600352e+01,   -1.381818e+02,   -8.692019e+01
    5960,    7.842993e+01,   -1.381818e+02,   -7.842993e+01
    5961,    5.916127e+01,   -1.454545e+02,   -5.916127e+01
    5962,    2.958063e+01,   -1.381818e+02,   -7.141397e+01
    5963,    6.558415e+01,   -1.381818e+02,   -6.558415e+01
    5964,    4.631549e+01,   -1.454545e+02,   -4.631549e+01
    5965,    2.315775e+01,   -1.381818e+02,   -5.590775e+01
    5966,    5.273838e+01,   -1.381818e+02,   -5.273838e+01
    5967,    3.346972e+01,   -1.454545e+02,   -3.346972e+01
    5968,    1.673486e+01,   -1.381818e+02,   -4.040153e+01
    5969,    3.989261e+01,   -1.381818e+02,   -3.989261e+01
    5970,    2.062395e+01,   -1.454545e+02,   -2.062395e+01
    5971,    1.031197e+01,   -1.381818e+02,   -2.489531e+01
    5972,    2.704683e+01,   -1.381818e+02,   -2.704683e+01
    5973,    1.420106e+01,   -1.381818e+02,   -1.420106e+01
    5974,    8.692019e+01,   -1.381818e+02,   -3.600352e+01
    5975,    7.141397e+01,   -1.381818e+02,   -2.958063e+01
    5976,    5.590775e+01,   -1.381818e+02,   -2.315775e+01
    5977,    4.040153e+01,   -1.381818e+02,   -1.673486e+01
    5978,    2.489531e+01,   -1.381818e+02,   -1.031197e+01
    5979,    7.200704e+01,   -1.309091e+02,   -7.200704e+01
    5980,    3.600352e+01,   -1.236364e+02,   -8.692019e+01
    5981,    7.842993e+01,   -1.236364e+02,   -7.842993e+01
    5982,    5.916127e+01,   -1.309091e+02,   -5.916127e+01
    5983,    2.958063e+01,   -1.236364e+02,   -7.141397e+01
    5984,    6.558415e+01,   -1.236364e+02,   -6.558415e+01
    5985,    4.631549e+01,   -1.309091e+02,   -4.631549e+01
    5986,    2.315775e+01,   -1.236364e+02,   -5.590775e+01
    5987,    5.273838e+01,   -1.236364e+02,   -5.273838e+01
    5988,    3.346972e+01,   -1.309091e+02,   -3.346972e+01
    5989,    1.673486e+01,   -1.236364e+02,   -4.040153e+01
    5990,    3.989261e+01,   -1.236364e+02,   -3.989261e+01
    5991,    2.062395e+01,   -1.309091e+02,   -2.062395e+01
    5992,    1.031197e+01,   -1.236364e+02,   -2.489531e+01
    5993,    2.704683e+01,   -1.236364e+02,   -2.704683e+01
    5994,    1.420106e+01,   -1.236364e+02,   -1.420106e+01
    5995,    8.692019e+01,   -1.236364e+02,   -3.600352e+01
    5996,    7.141397e+01,   -1.236364e+02,   -2.958063e+01
    5997,    5.590775e+01,   -1.236364e+02,   -2.315775e+01
    5998,    4.040153e+01,   -1.236364e+02,   -1.673486e+01
    5999,    2.489531e+01,   -1.236364e+02,   -1.031197e+01
    6000,    7.200704e+01,   -1.163636e+02,   -7.200704e+01
    6001,    3.600352e+01,   -1.090909e+02,   -8.692019e+01
    6002,    7.842993e+01,   -1.090909e+02,   -7.842993e+01
    6003,    5.916127e+01,   -1.163636e+02,   -5.916127e+01
    6004,    2.958063e+01,   -1.090909e+02,   -7.141397e+01
    6005,    6.558415e+01,   -1.090909e+02,   -6.558415e+01
    6006,    4.631549e+01,   -1.163636e+02,   -4.631549e+01
    6007,    2.315775e+01,   -1.090909e+02,   -5.590775e+01
    6008,    5.273838e+01,   -1.090909e+02,   -5.273838e+01
    6009,    3.346972e+01,   -1.163636e+02,   -3.346972e+01
    6010,    1.673486e+01,   -1.090909e+02,   -4.040153e+01
    6011,    3.989261e+01,   -1.090909e+02,   -3.989261e+01
    6012,    2.062395e+01,   -1.163636e+02,   -2.062395e+01
    6013,    1.031197e+01,   -1.090909e+02,   -2.489531e+01
    6014,    2.704683e+01,   -1.090909e+02,   -2.704683e+01
    6015,    1.420106e+01,   -1.090909e+02,   -1.420106e+01
    6016,    8.692019e+01,   -1.090909e+02,   -3.600352e+01
    6017,    7.141397e+01,   -1.090909e+02,   -2.958063e+01
    6018,    5.590775e+01,   -1.090909e+02,   -2.315775e+01
    6019,    4.040153e+01,   -1.090909e+02,   -1.673486e+01
    6020,    2.489531e+01,   -1.090909e+02,   -1.031197e+01
    6021,    7.200704e+01,   -1.018182e+02,   -7.200704e+01
    6022,    3.600352e+01,   -9.454545e+01,   -8.692019e+01
    6023,    7.842993e+01,   -9.454545e+01,   -7.842993e+01
    6024,    5.916127e+01,   -1.018182e+02,   -5.916127e+01
    6025,    2.958063e+01,   -9.454545e+01,   -7.141397e+01
    6026,    6.558415e+01,   -9.454545e+01,   -6.558415e+01
    6027,    4.631549e+01,   -1.018182e+02,   -4.631549e+01
    6028,    2.315775e+01,   -9.454545e+01,   -5.590775e+01
    6029,    5.273838e+01,   -9.454545e+01,   -5.273838e+01
    6030,    3.346972e+01,   -1.018182e+02,   -3.346972e+01
    6031,    1.673486e+01,   -9.454545e+01,   -4.040153e+01
    6032,    3.989261e+01,   -9.454545e+01,   -3.989261e+01
    6033,    2.062395e+01,   -1.018182e+02,   -2.062395e+01
    6034,    1.031197e+01,   -9.454545e+01,   -2.489531e+01
    6035,    2.704683e+01,   -9.454545e+01,   -2.704683e+01
    6036,    1.420106e+01,   -9.454545e+01,   -1.420106e+01
    6037,    8.692019e+01,   -9.454545e+01,   -3.600352e+01
    6038,    7.141397e+01,   -9.454545e+01,   -2.958063e+01
    6039,    5.590775e+01,   -9.454545e+01,   -2.315775e+01
    6040,    4.040153e+01,   -9.454545e+01,   -1.673486e+01
    6041,    2.489531e+01,   -9.454545e+01,   -1.031197e+01
    6042,    7.200704e+01,   -8.727273e+01,   -7.200704e+01
    6043,    5.916127e+01,   -8.727273e+01,   -5.916127e+01
    6044,    4.631549e+01,   -8.727273e+01,   -4.631549e+01
    6045,    3.346972e+01,   -8.727273e+01,   -3.346972e+01
    6046,    2.062395e+01,   -8.727273e+01,   -2.062395e+01
    6047,    0.000000e+00,    0.000000e+00,   -1.109167e+02
    6048,    0.000000e+00,    0.000000e+00,   -9.275000e+01
    6049,    0.000000e+00,    0.000000e+00,   -7.458333e+01
    6050,    0.000000e+00,    0.000000e+00,   -5.641667e+01
    6051,    0.000000e+00,    0.000000e+00,   -3.825000e+01
    6052,    0.000000e+00,    0.000000e+00,   -2.008333e+01
    6053,    0.000000e+00,   -8.000000e+00,   -1.100000e+01
    6054,    0.000000e+00,   -2.400000e+01,   -1.100000e+01
    6055,    0.000000e+00,   -4.000000e+01,   -1.100000e+01
    6056,    0.000000e+00,   -5.600000e+01,   -1.100000e+01
    6057,    0.000000e+00,   -7.200000e+01,   -1.100000e+01
    6058,    0.000000e+00,   -8.000000e+00,   -2.916667e+01
    6059,    0.000000e+00,   -1.600000e+01,   -2.008333e+01
    6060,    0.000000e+00,   -8.000000e+00,   -4.733333e+01
    6061,    0.000000e+00,   -1.600000e+01,   -3.825000e+01
    6062,    0.000000e+00,   -8.000000e+00,   -6.550000e+01
    6063,    0.000000e+00,   -1.600000e+01,   -5.641667e+01
    6064,    0.000000e+00,   -8.000000e+00,   -8.366667e+01
    6065,    0.000000e+00,   -1.600000e+01,   -7.458333e+01
    6066,    0.000000e+00,   -8.000000e+00,   -1.018333e+02
    6067,    0.000000e+00,   -1.600000e+01,   -9.275000e+01
    6068,    0.000000e+00,   -1.600000e+01,   -1.109167e+02
    6069,    0.000000e+00,   -2.400000e+01,   -2.916667e+01
    6070,    0.000000e+00,   -3.200000e+01,   -2.008333e+01
    6071,    0.000000e+00,   -2.400000e+01,   -4.733333e+01
    6072,    0.000000e+00,   -3.200000e+01,   -3.825000e+01
    6073,    0.000000e+00,   -2.400000e+01,   -6.550000e+01
    6074,    0.000000e+00,   -3.200000e+01,   -5.641667e+01
    6075,    0.000000e+00,   -2.400000e+01,   -8.366667e+01
    6076,    0.000000e+00,   -3.200000e+01,   -7.458333e+01
    6077,    0.000000e+00,   -2.400000e+01,   -1.018333e+02
    6078,    0.000000e+00,   -3.200000e+01,   -9.275000e+01
    6079,    0.000000e+00,   -3.200000e+01,   -1.109167e+02
    6080,    0.000000e+00,   -4.000000e+01,   -2.916667e+01
    6081,    0.000000e+00,   -4.800000e+01,   -2.008333e+01
    6082,    0.000000e+00,   -4.000000e+01,   -4.733333e+01
    6083,    0.000000e+00,   -4.800000e+01,   -3.825000e+01
    6084,    0.000000e+00,   -4.000000e+01,   -6.550000e+01
    6085,    0.000000e+00,   -4.800000e+01,   -5.641667e+01
    6086,    0.000000e+00,   -4.000000e+01,   -8.366667e+01
    6087,    0.000000e+00,   -4.800000e+01,   -7.458333e+01
    6088,    0.000000e+00,   -4.000000e+01,   -1.018333e+02
    6089,    0.000000e+00,   -4.800000e+01,   -9.275000e+01
    6090,    0.000000e+00,   -4.800000e+01,   -1.109167e+02
    6091,    0.000000e+00,   -5.600000e+01,   -2.916667e+01
    6092,    0.000000e+00,   -6.400000e+01,   -2.008333e+01
    6093,    0.000000e+00,   -5.600000e+01,   -4.733333e+01
    6094,    0.000000e+00,   -6.400000e+01,   -3.825000e+01
    6095,    0.000000e+00,   -5.600000e+01,   -6.550000e+01
    6096,    0.000000e+00,   -6.400000e+01,   -5.641667e+01
    6097,    0.000000e+00,   -5.600000e+01,   -8.366667e+01
    6098,    0.000000e+00,   -6.400000e+01,   -7.458333e+01
    6099,    0.000000e+00,   -5.600000e+01,   -1.018333e+02
    6100,    0.000000e+00,   -6.400000e+01,   -9.275000e+01
    6101,    0.000000e+00,   -6.400000e+01,   -1.109167e+02
    6102,    0.000000e+00,   -7.200000e+01,   -2.916667e+01
    6103,    0.000000e+00,   -7.200000e+01,   -4.733333e+01
    6104,    0.000000e+00,   -7.200000e+01,   -6.550000e+01
    6105,    0.000000e+00,   -7.200000e+01,   -8.366667e+01
    6106,    0.000000e+00,   -7.200000e+01,   -1.018333e+02
    6107,    1.109167e+02,    0.000000e+00,    0.000000e+00
    6108,    9.275000e+01,    0.000000e+00,    0.000000e+00
    6109,    7.458333e+01,    0.000000e+00,    0.000000e+00
    6110,    5.641667e+01,    0.000000e+00,    0.000000e+00
    6111,    3.825000e+01,    0.000000e+00,    0.000000e+00
    6112,    2.008333e+01,    0.000000e+00,    0.000000e+00
    6113,    1.100000e+01,   -8.000000e+00,   -1.959435e-15
    6114,    1.100000e+01,   -2.400000e+01,   -9.797174e-16
    6115,    1.100000e+01,   -4.000000e+01,    0.000000e+00
    6116,    1.100000e+01,   -5.600000e+01,    9.797174e-16
    6117,    1.100000e+01,   -7.200000e+01,    1.959435e-15
    6118,    1.109167e+02,   -6.400000e+01,    0.000000e+00
    6119,    1.018333e+02,   -7.200000e+01,    0.000000e+00
    6120,    1.109167e+02,   -4.800000e+01,    0.000000e+00
    6121,    1.018333e+02,   -5.600000e+01,    0.000000e+00
    6122,    1.109167e+02,   -3.200000e+01,    0.000000e+00
    6123,    1.018333e+02,   -4.000000e+01,    0.000000e+00
    6124,    1.109167e+02,   -1.600000e+01,    0.000000e+00
    6125,    1.018333e+02,   -2.400000e+01,    0.000000e+00
    6126,    1.018333e+02,   -8.000000e+00,    0.000000e+00
    6127,    9.275000e+01,   -6.400000e+01,    0.000000e+00
    6128,    8.366667e+01,   -7.200000e+01,    0.000000e+00
    6129,    9.275000e+01,   -4.800000e+01,    0.000000e+00
    6130,    8.366667e+01,   -5.600000e+01,    0.000000e+00
    6131,    9.275000e+01,   -3.200000e+01,    0.000000e+00
    6132,    8.366667e+01,   -4.000000e+01,    0.000000e+00
    6133,    9.275000e+01,   -1.600000e+01,    0.000000e+00
    6134,    8.366667e+01,   -2.400000e+01,    0.000000e+00
    6135,    8.366667e+01,   -8.000000e+00,    0.000000e+00
    6136,    7.458333e+01,   -6.400000e+01,    0.000000e+00
    6137,    6.550000e+01,   -7.200000e+01,    0.000000e+00
    6138,    7.458333e+01,   -4.800000e+01,    0.000000e+00
    6139,    6.550000e+01,   -5.600000e+01,    0.000000e+00
    6140,    7.458333e+01,   -3.200000e+01,    0.000000e+00
    6141,    6.550000e+01,   -4.000000e+01,    0.000000e+00
    6142,    7.458333e+01,   -1.600000e+01,    0.000000e+00
    6143,    6.550000e+01,   -2.400000e+01,    0.000000e+00
    6144,    6.550000e+01,   -8.000000e+00,    0.000000e+00
    6145,    5.641667e+01,   -6.400000e+01,    0.000000e+00
    6146,    4.733333e+01,   -7.200000e+01,    0.000000e+00
    6147,    5.641667e+01,   -4.800000e+01,    0.000000e+00
    6148,    4.733333e+01,   -5.600000e+01,    0.000000e+00
    6149,    5.641667e+01,   -3.200000e+01,    0.000000e+00
    6150,    4.733333e+01,   -4.000000e+01,    0.000000e+00
    6151,    5.641667e+01,   -1.600000e+01,    0.000000e+00
    6152,    4.733333e+01,   -2.400000e+01,    0.000000e+00
    6153,    4.733333e+01,   -8.000000e+00,    0.000000e+00
    6154,    3.825000e+01,   -6.400000e+01,    0.000000e+00
    6155,    2.916667e+01,   -7.200000e+01,    0.000000e+00
    6156,    3.825000e+01,   -4.800000e+01,    0.000000e+00
    6157,    2.916667e+01,   -5.600000e+01,    0.000000e+00
    6158,    3.825000e+01,   -3.200000e+01,    0.000000e+00
    6159,    2.916667e+01,   -4.000000e+01,    0.000000e+00
    6160,    3.825000e+01,   -1.600000e+01,    0.000000e+00
    6161,    2.916667e+01,   -2.400000e+01,    0.000000e+00
    6162,    2.916667e+01,   -8.000000e+00,    0.000000e+00
    6163,    2.008333e+01,   -6.400000e+01,    0.000000e+00
    6164,    2.008333e+01,   -4.800000e+01,    0.000000e+00
    6165,    2.008333e+01,   -3.200000e+01,    0.000000e+00
    6166,    2.008333e+01,   -1.600000e+01,    0.000000e+00
    6167,    4.209518e+00,    0.000000e+00,   -1.016267e+01
    6168,    1.016267e+01,    0.000000e+00,   -4.209518e+00
    6169,    3.600352e+01,    0.000000e+00,   -8.692019e+01
    6170,    7.842993e+01,    0.000000e+00,   -7.842993e+01
    6171,    2.958063e+01,    0.000000e+00,   -7.141397e+01
    6172,    6.558415e+01,    0.000000e+00,   -6.558415e+01
    6173,    2.315775e+01,    0.000000e+00,   -5.590775e+01
    6174,    5.273838e+01,    0.000000e+00,   -5.273838e+01
    6175,    1.673486e+01,    0.000000e+00,   -4.040153e+01
    6176,    3.989261e+01,    0.000000e+00,   -3.989261e+01
    6177,    1.031197e+01,    0.000000e+00,   -2.489531e+01
    6178,    2.704683e+01,    0.000000e+00,   -2.704683e+01
    6179,    1.420106e+01,    0.000000e+00,   -1.420106e+01
    6180,    8.692019e+01,    0.000000e+00,   -3.600352e+01
    6181,    7.141397e+01,    0.000000e+00,   -2.958063e+01
    6182,    5.590775e+01,    0.000000e+00,   -2.315775e+01
    6183,    4.040153e+01,    0.000000e+00,   -1.673486e+01
    6184,    2.489531e+01,    0.000000e+00,   -1.031197e+01
    6185,    4.209518e+00,   -1.600000e+01,   -1.016267e+01
    6186,    7.778175e+00,   -8.000000e+00,   -7.778175e+00
    6187,    4.209518e+00,   -3.200000e+01,   -1.016267e+01
    6188,    7.778175e+00,   -2.400000e+01,   -7.778175e+00
    6189,    4.209518e+00,   -4.800000e+01,   -1.016267e+01
    6190,    7.778175e+00,   -4.000000e+01,   -7.778175e+00
    6191,    4.209518e+00,   -6.400000e+01,   -1.016267e+01
    6192,    7.778175e+00,   -5.600000e+01,   -7.778175e+00
    6193,    7.778175e+00,   -7.200000e+01,   -7.778175e+00
    6194,    1.016267e+01,   -1.600000e+01,   -4.209518e+00
    6195,    1.016267e+01,   -3.200000e+01,   -4.209518e+00
    6196,    1.016267e+01,   -4.800000e+01,   -4.209518e+00
    6197,    1.016267e+01,   -6.400000e+01,   -4.209518e+00
    6198,    1.420106e+01,   -1.600000e+01,   -1.420106e+01
    6199,    2.062395e+01,   -8.000000e+00,   -2.062395e+01
    6200,    1.031197e+01,   -1.600000e+01,   -2.489531e+01
    6201,    2.489531e+01,   -1.600000e+01,   -1.031197e+01
    6202,    1.420106e+01,   -3.200000e+01,   -1.420106e+01
    6203,    2.062395e+01,   -2.400000e+01,   -2.062395e+01
    6204,    1.031197e+01,   -3.200000e+01,   -2.489531e+01
    6205,    2.489531e+01,   -3.200000e+01,   -1.031197e+01
    6206,    1.420106e+01,   -4.800000e+01,   -1.420106e+01
    6207,    2.062395e+01,   -4.000000e+01,   -2.062395e+01
    6208,    1.031197e+01,   -4.800000e+01,   -2.489531e+01
    6209,    2.489531e+01,   -4.800000e+01,   -1.031197e+01
    6210,    1.420106e+01,   -6.400000e+01,   -1.420106e+01
    6211,    2.062395e+01,   -5.600000e+01,   -2.062395e+01
    6212,    1.031197e+01,   -6.400000e+01,   -2.489531e+01
    6213,    2.489531e+01,   -6.400000e+01,   -1.031197e+01
    6214,    2.062395e+01,   -7.200000e+01,   -2.062395e+01
    6215,    2.704683e+01,   -1.600000e+01,   -2.704683e+01
    6216,    3.346972e+01,   -8.000000e+00,   -3.346972e+01
    6217,    1.673486e+01,   -1.600000e+01,   -4.040153e+01
    6218,    4.040153e+01,   -1.600000e+01,   -1.673486e+01
    6219,    2.704683e+01,   -3.200000e+01,   -2.704683e+01
    6220,    3.346972e+01,   -2.400000e+01,   -3.346972e+01
    6221,    1.673486e+01,   -3.200000e+01,   -4.040153e+01
    6222,    4.040153e+01,   -3.200000e+01,   -1.673486e+01
    6223,    2.704683e+01,   -4.800000e+01,   -2.704683e+01
    6224,    3.346972e+01,   -4.000000e+01,   -3.346972e+01
    6225,    1.673486e+01,   -4.800000e+01,   -4.040153e+01
    6226,    4.040153e+01,   -4.800000e+01,   -1.673486e+01
    6227,    2.704683e+01,   -6.400000e+01,   -2.704683e+01
    6228,    3.346972e+01,   -5.600000e+01,   -3.346972e+01
    6229,    1.673486e+01,   -6.400000e+01,   -4.040153e+01
    6230,    4.040153e+01,   -6.400000e+01,   -1.673486e+01
    6231,    3.346972e+01,   -7.200000e+01,   -3.346972e+01
    6232,    3.989261e+01,   -1.600000e+01,   -3.989261e+01
    6233,    4.631549e+01,   -8.000000e+00,   -4.631549e+01
    6234,    2.315775e+01,   -1.600000e+01,   -5.590775e+01
    6235,    5.590775e+01,   -1.600000e+01,   -2.315775e+01
    6236,    3.989261e+01,   -3.200000e+01,   -3.989261e+01
    6237,    4.631549e+01,   -2.400000e+01,   -4.631549e+01
    6238,    2.315775e+01,   -3.200000e+01,   -5.590775e+01
    6239,    5.590775e+01,   -3.200000e+01,   -2.315775e+01
    6240,    3.989261e+01,   -4.800000e+01,   -3.989261e+01
    6241,    4.631549e+01,   -4.000000e+01,   -4.631549e+01
    6242,    2.315775e+01,   -4.800000e+01,   -5.590775e+01
    6243,    5.590775e+01,   -4.800000e+01,   -2.315775e+01
    6244,    3.989261e+01,   -6.400000e+01,   -3.989261e+01
    6245,    4.631549e+01,   -5.600000e+01,   -4.631549e+01
    6246,    2.315775e+01,   -6.400000e+01,   -5.590775e+01
    6247,    5.590775e+01,   -6.400000e+01,   -2.315775e+01
    6248,    4.631549e+01,   -7.200000e+01,   -4.631549e+01
    6249,    5.273838e+01,   -1.600000e+01,   -5.273838e+01
    6250,    5.916127e+01,   -8.000000e+00,   -5.916127e+01
    6251,    2.958063e+01,   -1.600000e+01,   -7.141397e+01
    6252,    7.141397e+01,   -1.600000e+01,   -2.958063e+01
    6253,    5.273838e+01,   -3.200000e+01,   -5.273838e+01
    6254,    5.916127e+01,   -2.400000e+01,   -5.916127e+01
    6255,    2.958063e+01,   -3.200000e+01,   -7.141397e+01
    6256,    7.141397e+01,   -3.200000e+01,   -2.958063e+01
    6257,    5.273838e+01,   -4.800000e+01,   -5.273838e+01
    6258,    5.916127e+01,   -4.000000e+01,   -5.916127e+01
    6259,    2.958063e+01,   -4.800000e+01,   -7.141397e+01
    6260,    7.141397e+01,   -4.800000e+01,   -2.958063e+01
    6261,    5.273838e+01,   -6.400000e+01,   -5.273838e+01
    6262,    5.916127e+01,   -5.600000e+01,   -5.916127e+01
    6263,    2.958063e+01,   -6.400000e+01,   -7.141397e+01
    6264,    7.141397e+01,   -6.400000e+01,   -2.958063e+01
    6265,    5.916127e+01,   -7.200000e+01,   -5.916127e+01
    6266,    6.558415e+01,   -1.600000e+01,   -6.558415e+01
    6267,    7.200704e+01,   -8.000000e+00,   -7.200704e+01
    6268,    3.600352e+01,   -1.600000e+01,   -8.692019e+01
    6269,    8.692019e+01,   -1.600000e+01,   -3.600352e+01
    6270,    6.558415e+01,   -3.200000e+01,   -6.558415e+01
    6271,    7.200704e+01,   -2.400000e+01,   -7.200704e+01
    6272,    3.600352e+01,   -3.200000e+01,   -8.692019e+01
    6273,    8.692019e+01,   -3.200000e+01,   -3.600352e+01
    6274,    6.558415e+01,   -4.800000e+01,   -6.558415e+01
    6275,    7.200704e+01,   -4.000000e+01,   -7.200704e+01
    6276,    3.600352e+01,   -4.800000e+01,   -8.692019e+01
    6277,    8.692019e+01,   -4.800000e+01,   -3.600352e+01
    6278,    6.558415e+01,   -6.400000e+01,   -6.558415e+01
    6279,    7.200704e+01,   -5.600000e+01,   -7.200704e+01
    6280,    3.600352e+01,   -6.400000e+01,   -8.692019e+01
    6281,    8.692019e+01,   -6.400000e+01,   -3.600352e+01
    6282,    7.200704e+01,   -7.200000e+01,   -7.200704e+01
    6283,    7.842993e+01,   -1.600000e+01,   -7.842993e+01
    6284,    7.842993e+01,   -3.200000e+01,   -7.842993e+01
    6285,    7.842993e+01,   -4.800000e+01,   -7.842993e+01
    6286,    7.842993e+01,   -6.400000e+01,   -7.842993e+01
    6287,   -1.785714e+01,   -2.400000e+02,   -2.500000e+02
    6288,   -5.357143e+01,   -2.400000e+02,   -2.500000e+02
    6289,   -8.928571e+01,   -2.400000e+02,   -2.500000e+02
    6290,   -1.250000e+02,   -2.400000e+02,   -2.500000e+02
    6291,   -1.607143e+02,   -2.400000e+02,   -2.500000e+02
    6292,   -1.964286e+02,   -2.400000e+02,   -2.500000e+02
    6293,   -2.321429e+02,   -2.400000e+02,   -2.500000e+02
    6294,   -2.500000e+02,   -2.327273e+02,   -2.500000e+02
    6295,   -2.500000e+02,   -2.181818e+02,   -2.500000e+02
    6296,   -2.500000e+02,   -2.036364e+02,   -2.500000e+02
    6297,   -2.500000e+02,   -1.890909e+02,   -2.500000e+02
    6298,   -2.500000e+02,   -1.745455e+02,   -2.500000e+02
    6299,   -2.500000e+02,   -1.600000e+02,   -2.500000e+02
    6300,   -2.500000e+02,   -1.454545e+02,   -2.500000e+02
    6301,   -2.500000e+02,   -1.309091e+02,   -2.500000e+02
    6302,   -2.500000e+02,   -1.163636e+02,   -2.500000e+02
    6303,   -2.500000e+02,   -1.018182e+02,   -2.500000e+02
    6304,   -2.500000e+02,   -8.727273e+01,   -2.500000e+02
    6305,   -2.321429e+02,   -8.000000e+01,   -2.500000e+02
    6306,   -1.964286e+02,   -8.000000e+01,   -2.500000e+02
    6307,   -1.607143e+02,   -8.000000e+01,   -2.500000e+02
    6308,   -1.250000e+02,   -8.000000e+01,   -2.500000e+02
    6309,   -8.928571e+01,   -8.000000e+01,   -2.500000e+02
    6310,   -5.357143e+01,   -8.000000e+01,   -2.500000e+02
    6311,   -1.785714e+01,   -8.000000e+01,   -2.500000e+02
    6312,   -1.785714e+01,   -9.454545e+01,   -2.500000e+02
    6313,   -3.571429e+01,   -8.727273e+01,   -2.500000e+02
    6314,   -1.785714e+01,   -1.090909e+02,   -2.500000e+02
    6315,   -3.571429e+01,   -1.018182e+02,   -2.500000e+02
    6316,   -1.785714e+01,   -1.236364e+02,   -2.500000e+02
    6317,   -3.571429e+01,   -1.163636e+02,   -2.500000e+02
    6318,   -1.785714e+01,   -1.381818e+02,   -2.500000e+02
    6319,   -3.571429e+01,   -1.309091e+02,   -2.500000e+02
    6320,   -1.785714e+01,   -1.527273e+02,   -2.500000e+02
    6321,   -3.571429e+01,   -1.454545e+02,   -2.500000e+02
    6322,   -1.785714e+01,   -1.672727e+02,   -2.500000e+02
    6323,   -3.571429e+01,   -1.600000e+02,   -2.500000e+02
    6324,   -1.785714e+01,   -1.818182e+02,   -2.500000e+02
    6325,   -3.571429e+01,   -1.745455e+02,   -2.500000e+02
    6326,   -1.785714e+01,   -1.963636e+02,   -2.500000e+02
    6327,   -3.571429e+01,   -1.890909e+02,   -2.500000e+02
    6328,   -1.785714e+01,   -2.109091e+02,   -2.500000e+02
    6329,   -3.571429e+01,   -2.036364e+02,   -2.500000e+02
    6330,   -1.785714e+01,   -2.254545e+02,   -2.500000e+02
    6331,   -3.571429e+01,   -2.181818e+02,   -2.500000e+02
    6332,   -3.571429e+01,   -2.327273e+02,   -2.500000e+02
    6333,   -5.357143e+01,   -9.454545e+01,   -2.500000e+02
    6334,   -7.142857e+01,   -8.727273e+01,   -2.500000e+02
    6335,   -5.357143e+01,   -1.090909e+02,   -2.500000e+02
    6336,   -7.142857e+01,   -1.018182e+02,   -2.500000e+02
    6337,   -5.357143e+01,   -1.236364e+02,   -2.500000e+02
    6338,   -7.142857e+01,   -1.163636e+02,   -2.500000e+02
    6339,   -5.357143e+01,   -1.381818e+02,   -2.500000e+02
    6340,   -7.142857e+01,   -1.309091e+02,   -2.500000e+02
    6341,   -5.357143e+01,   -1.527273e+02,   -2.500000e+02
    6342,   -7.142857e+01,   -1.454545e+02,   -2.500000e+02
    6343,   -5.357143e+01,   -1.672727e+02,   -2.500000e+02
    6344,   -7.142857e+01,   -1.600000e+02,   -2.500000e+02
    6345,   -5.357143e+01,   -1.818182e+02,   -2.500000e+02
    6346,   -7.142857e+01,   -1.745455e+02,   -2.500000e+02
    6347,   -5.357143e+01,   -1.963636e+02,   -2.500000e+02
    6348,   -7.142857e+01,   -1.890909e+02,   -2.500000e+02
    6349,   -5.357143e+01,   -2.109091e+02,   -2.500000e+02
    6350,   -7.142857e+01,   -2.036364e+02,   -2.500000e+02
    6351,   -5.357143e+01,   -2.254545e+02,   -2.500000e+02
    6352,   -7.142857e+01,   -2.181818e+02,   -2.500000e+02
    6353,   -7.142857e+01,   -2.327273e+02,   -2.500000e+02
    6354,   -8.928571e+01,   -9.454545e+01,   -2.500000e+02
    6355,   -1.071429e+02,   -8.727273e+01,   -2.500000e+02
    6356,   -8.928571e+01,   -1.090909e+02,   -2.500000e+02
    6357,   -1.071429e+02,   -1.018182e+02,   -2.500000e+02
    6358,   -8.928571e+01,   -1.236364e+02,   -2.500000e+02
    6359,   -1.071429e+02,   -1.163636e+02,   -2.500000e+02
    6360,   -8.928571e+01,   -1.381818e+02,   -2.500000e+02
    6361,   -1.071429e+02,   -1.309091e+02,   -2.500000e+02
    6362,   -8.928571e+01,   -1.527273e+02,   -2.500000e+02
    6363,   -1.071429e+02,   -1.454545e+02,   -2.500000e+02
    6364,   -8.928571e+01,   -1.672727e+02,   -2.500000e+02
    6365,   -1.071429e+02,   -1.600000e+02,   -2.500000e+02
    6366,   -8.928571e+01,   -1.818182e+02,   -2.500000e+02
    6367,   -1.071429e+02,   -1.745455e+02,   -2.500000e+02
    6368,   -8.928571e+01,   -1.963636e+02,   -2.500000e+02
    6369,   -1.071429e+02,   -1.890909e+02,   -2.500000e+02
    6370,   -8.928571e+01,   -2.109091e+02,   -2.500000e+02
    6371,   -1.071429e+02,   -2.036364e+02,   -2.500000e+02
    6372,   -8.928571e+01,   -2.254545e+02,   -2.500000e+02
    6373,   -1.071429e+02,   -2.181818e+02,   -2.500000e+02
    6374,   -1.071429e+02,   -2.327273e+02,   -2.500000e+02
    6375,   -1.250000e+02,   -9.454545e+01,   -2.500000e+02
    6376,   -1.428571e+02,   -8.727273e+01,   -2.500000e+02
    6377,   -1.250000e+02,   -1.090909e+02,   -2.500000e+02
    6378,   -1.428571e+02,   -1.018182e+02,   -2.500000e+02
    6379,   -1.250000e+02,   -1.236364e+02,   -2.500000e+02
    6380,   -1.428571e+02,   -1.163636e+02,   -2.500000e+02
    6381,   -1.250000e+02,   -1.381818e+02,   -2.500000e+02
    6382,   -1.428571e+02,   -1.309091e+02,   -2.500000e+02
    6383,   -1.250000e+02,   -1.527273e+02,   -2.500000e+02
    6384,   -1.428571e+02,   -1.454545e+02,   -2.500000e+02
    6385,   -1.250000e+02,   -1.672727e+02,   -2.500000e+02
    6386,   -1.428571e+02,   -1.600000e+02,   -2.500000e+02
    6387,   -1.250000e+02,   -1.818182e+02,   -2.500000e+02
    6388,   -1.428571e+02,   -1.745455e+02,   -2.500000e+02
    6389,   -1.250000e+02,   -1.963636e+02,   -2.500000e+02
    6390,   -1.428571e+02,   -1.890909e+02,   -2.500000e+02
    6391,   -1.250000e+02,   -2.109091e+02,   -2.500000e+02
    6392,   -1.428571e+02,   -2.036364e+02,   -2.500000e+02
    6393,   -1.250000e+02,   -2.254545e+02,   -2.500000e+02
    6394,   -1.428571e+02,   -2.181818e+02,   -2.500000e+02
    6395,   -1.428571e+02,   -2.327273e+02,   -2.500000e+02
    6396,   -1.607143e+02,   -9.454545e+01,   -2.500000e+02
    6397,   -1.785714e+02,   -8.727273e+01,   -2.500000e+02
    6398,   -1.607143e+02,   -1.090909e+02,   -2.500000e+02
    6399,   -1.785714e+02,   -1.018182e+02,   -2.500000e+02
    6400,   -1.607143e+02,   -1.236364e+02,   -2.500000e+02
    6401,   -1.785714e+02,   -1.163636e+02,   -2.500000e+02
    6402,   -1.607143e+02,   -1.381818e+02,   -2.500000e+02
    6403,   -1.785714e+02,   -1.309091e+02,   -2.500000e+02
    6404,   -1.607143e+02,   -1.527273e+02,   -2.500000e+02
    6405,   -1.785714e+02,   -1.454545e+02,   -2.500000e+02
    6406,   -1.607143e+02,   -1.672727e+02,   -2.500000e+02
    6407,   -1.785714e+02,   -1.600000e+02,   -2.500000e+02
    6408,   -1.607143e+02,   -1.818182e+02,   -2.500000e+02
    6409,   -1.785714e+02,   -1.745455e+02,   -2.500000e+02
    6410,   -1.607143e+02,   -1.963636e+02,   -2.500000e+02
    6411,   -1.785714e+02,   -1.890909e+02,   -2.500000e+02
    6412,   -1.607143e+02,   -2.109091e+02,   -2.500000e+02
    6413,   -1.785714e+02,   -2.036364e+02,   -2.500000e+02
    6414,   -1.607143e+02,   -2.254545e+02,   -2.500000e+02
    6415,   -1.785714e+02,   -2.181818e+02,   -2.500000e+02
    6416,   -1.785714e+02,   -2.327273e+02,   -2.500000e+02
    6417,   -1.964286e+02,   -9.454545e+01,   -2.500000e+02
    6418,   -2.142857e+02,   -8.727273e+01,   -2.500000e+02
    6419,   -1.964286e+02,   -1.090909e+02,   -2.500000e+02
    6420,   -2.142857e+02,   -1.018182e+02,   -2.500000e+02
    6421,   -1.964286e+02,   -1.236364e+02,   -2.500000e+02
    6422,   -2.142857e+02,   -1.163636e+02,   -2.500000e+02
    6423,   -1.964286e+02,   -1.381818e+02,   -2.500000e+02
    6424,   -2.142857e+02,   -1.309091e+02,   -2.500000e+02
    6425,   -1.964286e+02,   -1.527273e+02,   -2.500000e+02
    6426,   -2.142857e+02,   -1.454545e+02,   -2.500000e+02
    6427,   -1.964286e+02,   -1.672727e+02,   -2.500000e+02
    6428,   -2.142857e+02,   -1.600000e+02,   -2.500000e+02
    6429,   -1.964286e+02,   -1.818182e+02,   -2.500000e+02
    6430,   -2.142857e+02,   -1.745455e+02,   -2.500000e+02
    6431,   -1.964286e+02,   -1.963636e+02,   -2.500000e+02
    6432,   -2.142857e+02,   -1.890909e+02,   -2.500000e+02
    6433,   -1.964286e+02,   -2.109091e+02,   -2.500000e+02
    6434,   -2.142857e+02,   -2.036364e+02,   -2.500000e+02
    6435,   -1.964286e+02,   -2.254545e+02,   -2.500000e+02
    6436,   -2.142857e+02,   -2.181818e+02,   -2.500000e+02
    6437,   -2.142857e+02,   -2.327273e+02,   -2.500000e+02
    6438,   -2.321429e+02,   -9.454545e+01,   -2.500000e+02
    6439,   -2.321429e+02,   -1.090909e+02,   -2.500000e+02
    6440,   -2.321429e+02,   -1.236364e+02,   -2.500000e+02
    6441,   -2.321429e+02,   -1.381818e+02,   -2.500000e+02
    6442,   -2.321429e+02,   -1.527273e+02,   -2.500000e+02
    6443,   -2.321429e+02,   -1.672727e+02,   -2.500000e+02
    6444,   -2.321429e+02,   -1.818182e+02,   -2.500000e+02
    6445,   -2.321429e+02,   -1.963636e+02,   -2.500000e+02
    6446,   -2.321429e+02,   -2.109091e+02,   -2.500000e+02
    6447,   -2.321429e+02,   -2.254545e+02,   -2.500000e+02
    6448,   -4.592201e+01,   -2.400000e+02,   -1.108655e+02
    6449,   -1.108655e+02,   -2.400000e+02,   -4.592201e+01
    6450,   -2.337500e+02,   -2.400000e+02,    0.000000e+00
    6451,   -2.012500e+02,   -2.400000e+02,    0.000000e+00
    6452,   -1.687500e+02,   -2.400000e+02,    0.000000e+00
    6453,   -1.362500e+02,   -2.400000e+02,    0.000000e+00
    6454,   -2.500000e+02,   -2.400000e+02,   -1.785714e+01
    6455,   -2.500000e+02,   -2.400000e+02,   -5.357143e+01
    6456,   -2.500000e+02,   -2.400000e+02,   -8.928571e+01
    6457,   -2.500000e+02,   -2.400000e+02,   -1.250000e+02
    6458,   -2.500000e+02,   -2.400000e+02,   -1.607143e+02
    6459,   -2.500000e+02,   -2.400000e+02,   -1.964286e+02
    6460,   -2.500000e+02,   -2.400000e+02,   -2.321429e+02
    6461,   -1.032531e+02,   -2.400000e+02,   -1.152129e+02
    6462,   -1.348718e+02,   -2.400000e+02,   -1.162168e+02
    6463,   -1.208787e+02,   -2.400000e+02,   -1.428428e+02
    6464,   -8.926004e+01,   -2.400000e+02,   -1.418388e+02
    6465,   -1.121744e+02,   -2.400000e+02,   -6.905501e+01
    6466,   -1.356975e+02,   -2.400000e+02,   -7.610088e+01
    6467,   -7.972997e+01,   -2.400000e+02,   -1.081670e+02
    6468,   -1.589127e+02,   -2.400000e+02,   -4.828771e+01
    6469,   -1.763348e+02,   -2.400000e+02,   -6.390749e+01
    6470,   -1.531196e+02,   -2.400000e+02,   -9.172066e+01
    6471,   -1.743831e+02,   -2.400000e+02,   -1.027333e+02
    6472,   -1.561353e+02,   -2.400000e+02,   -1.272295e+02
    6473,   -1.128601e+02,   -2.400000e+02,   -1.599382e+02
    6474,   -1.417090e+02,   -2.400000e+02,   -1.472981e+02
    6475,   -1.336904e+02,   -2.400000e+02,   -1.643935e+02
    6476,   -1.459980e+02,   -2.400000e+02,   -2.662861e+01
    6477,   -1.816647e+02,   -2.400000e+02,   -2.165910e+01
    6478,   -1.313166e+02,   -2.400000e+02,   -1.894093e+02
    6479,   -1.190475e+02,   -2.400000e+02,   -1.788487e+02
    6480,   -1.459595e+02,   -2.400000e+02,   -1.749541e+02
    6481,   -1.015759e+02,   -2.400000e+02,   -1.868157e+02
    6482,   -9.538850e+01,   -2.400000e+02,   -1.679052e+02
    6483,   -1.617266e+02,   -2.400000e+02,   -1.573710e+02
    6484,   -1.761528e+02,   -2.400000e+02,   -1.373024e+02
    6485,   -1.139170e+02,   -2.400000e+02,   -2.045013e+02
    6486,   -1.456222e+02,   -2.400000e+02,   -2.038398e+02
    6487,   -1.282226e+02,   -2.400000e+02,   -2.189318e+02
    6488,   -8.193082e+01,   -2.400000e+02,   -2.002402e+02
    6489,   -9.427196e+01,   -2.400000e+02,   -2.179258e+02
    6490,   -1.788601e+02,   -2.400000e+02,   -1.694017e+02
    6491,   -1.630931e+02,   -2.400000e+02,   -1.869848e+02
    6492,   -1.797594e+02,   -2.400000e+02,   -2.013299e+02
    6493,   -1.622885e+02,   -2.400000e+02,   -2.181849e+02
    6494,   -1.926930e+02,   -2.400000e+02,   -1.167485e+02
    6495,   -1.933008e+02,   -2.400000e+02,   -8.050288e+01
    6496,   -2.116106e+02,   -2.400000e+02,   -9.451805e+01
    6497,   -2.121769e+02,   -2.400000e+02,   -1.299698e+02
    6498,   -1.956368e+02,   -2.400000e+02,   -1.505237e+02
    6499,   -2.140493e+02,   -2.400000e+02,   -1.645611e+02
    6500,   -1.972727e+02,   -2.400000e+02,   -1.834391e+02
    6501,   -2.147106e+02,   -2.400000e+02,   -1.988015e+02
    6502,   -1.971974e+02,   -2.400000e+02,   -2.166923e+02
    6503,   -4.350801e+01,   -2.400000e+02,   -1.975712e+02
    6504,   -6.717709e+01,   -2.400000e+02,   -1.814474e+02
    6505,   -5.826173e+01,   -2.400000e+02,   -2.163640e+02
    6506,   -6.104863e+01,   -2.400000e+02,   -1.553810e+02
    6507,   -1.963485e+02,   -2.400000e+02,   -4.096756e+01
    6508,   -2.133144e+02,   -2.400000e+02,   -5.756295e+01
    6509,   -2.311307e+02,   -2.400000e+02,   -7.396878e+01
    6510,   -2.321838e+02,   -2.400000e+02,   -3.716560e+01
    6511,   -2.304800e+02,   -2.400000e+02,   -1.098350e+02
    6512,   -2.316970e+02,   -2.400000e+02,   -1.451348e+02
    6513,   -2.323523e+02,   -2.400000e+02,   -1.801406e+02
    6514,   -2.323583e+02,   -2.400000e+02,   -2.150895e+02
    6515,   -2.145012e+02,   -2.400000e+02,   -2.329466e+02
    6516,   -1.791248e+02,   -2.400000e+02,   -2.337456e+02
    6517,   -1.438780e+02,   -2.400000e+02,   -2.344392e+02
    6518,   -1.093446e+02,   -2.400000e+02,   -2.344925e+02
    6519,   -7.421308e+01,   -2.400000e+02,   -2.334332e+02
    6520,   -3.762008e+01,   -2.400000e+02,   -2.329307e+02
    6521,   -2.159338e+02,   -2.400000e+02,   -1.930846e+01
    6522,   -1.976293e+01,   -2.400000e+02,   -2.166807e+02
    6523,   -2.374507e+01,   -2.400000e+02,   -1.821404e+02
    6524,   -3.730356e+01,   -2.400000e+02,   -1.419906e+02
    6525,   -2.500000e+02,   -8.727273e+01,    0.000000e+00
    6526,   -2.500000e+02,   -1.018182e+02,    0.000000e+00
    6527,   -2.500000e+02,   -1.163636e+02,    0.000000e+00
    6528,   -2.500000e+02,   -1.309091e+02,    0.000000e+00
    6529,   -2.500000e+02,   -1.454545e+02,    0.000000e+00
    6530,   -2.500000e+02,   -1.600000e+02,    0.000000e+00
    6531,   -2.500000e+02,   -1.745455e+02,    0.000000e+00
    6532,   -2.500000e+02,   -1.890909e+02,    0.000000e+00
    6533,   -2.500000e+02,   -2.036364e+02,    0.000000e+00
    6534,   -2.500000e+02,   -2.181818e+02,    0.000000e+00
    6535,   -2.500000e+02,   -2.327273e+02,    0.000000e+00
    6536,   -1.200000e+02,   -2.327273e+02,   -4.453261e-15
    6537,   -1.200000e+02,   -2.181818e+02,   -3.562609e-15
    6538,   -1.200000e+02,   -2.036364e+02,   -2.671957e-15
    6539,   -1.200000e+02,   -1.890909e+02,   -1.781304e-15
    6540,   -1.200000e+02,   -1.745455e+02,   -8.906522e-16
    6541,   -1.200000e+02,   -1.600000e+02,   -1.663737e-63
    6542,   -1.200000e+02,   -1.454545e+02,    8.906522e-16
    6543,   -1.200000e+02,   -1.309091e+02,    1.781304e-15
    6544,   -1.200000e+02,   -1.163636e+02,    2.671957e-15
    6545,   -1.200000e+02,   -1.018182e+02,    3.562609e-15
    6546,   -1.200000e+02,   -8.727273e+01,    4.453261e-15
    6547,   -1.362500e+02,   -8.000000e+01,    0.000000e+00
    6548,   -1.687500e+02,   -8.000000e+01,    0.000000e+00
    6549,   -2.012500e+02,   -8.000000e+01,    0.000000e+00
    6550,   -2.337500e+02,   -8.000000e+01,    0.000000e+00
    6551,   -2.337500e+02,   -9.454545e+01,    0.000000e+00
    6552,   -2.175000e+02,   -8.727273e+01,    0.000000e+00
    6553,   -2.337500e+02,   -1.090909e+02,    0.000000e+00
    6554,   -2.175000e+02,   -1.018182e+02,    0.000000e+00
    6555,   -2.337500e+02,   -1.236364e+02,    0.000000e+00
    6556,   -2.175000e+02,   -1.163636e+02,    0.000000e+00
    6557,   -2.337500e+02,   -1.381818e+02,    0.000000e+00
    6558,   -2.175000e+02,   -1.309091e+02,    0.000000e+00
    6559,   -2.337500e+02,   -1.527273e+02,    0.000000e+00
    6560,   -2.175000e+02,   -1.454545e+02,    0.000000e+00
    6561,   -2.337500e+02,   -1.672727e+02,    0.000000e+00
    6562,   -2.175000e+02,   -1.600000e+02,    0.000000e+00
    6563,   -2.337500e+02,   -1.818182e+02,    0.000000e+00
    6564,   -2.175000e+02,   -1.745455e+02,    0.000000e+00
    6565,   -2.337500e+02,   -1.963636e+02,    0.000000e+00
    6566,   -2.175000e+02,   -1.890909e+02,    0.000000e+00
    6567,   -2.337500e+02,   -2.109091e+02,    0.000000e+00
    6568,   -2.175000e+02,   -2.036364e+02,    0.000000e+00
    6569,   -2.337500e+02,   -2.254545e+02,    0.000000e+00
    6570,   -2.175000e+02,   -2.181818e+02,    0.000000e+00
    6571,   -2.175000e+02,   -2.327273e+02,    0.000000e+00
    6572,   -2.012500e+02,   -9.454545e+01,    0.000000e+00
    6573,   -1.850000e+02,   -8.727273e+01,    0.000000e+00
    6574,   -2.012500e+02,   -1.090909e+02,    0.000000e+00
    6575,   -1.850000e+02,   -1.018182e+02,    0.000000e+00
    6576,   -2.012500e+02,   -1.236364e+02,    0.000000e+00
    6577,   -1.850000e+02,   -1.163636e+02,    0.000000e+00
    6578,   -2.012500e+02,   -1.381818e+02,    0.000000e+00
    6579,   -1.850000e+02,   -1.309091e+02,    0.000000e+00
    6580,   -2.012500e+02,   -1.527273e+02,    0.000000e+00
    6581,   -1.850000e+02,   -1.454545e+02,    0.000000e+00
    6582,   -2.012500e+02,   -1.672727e+02,    0.000000e+00
    6583,   -1.850000e+02,   -1.600000e+02,    0.000000e+00
    6584,   -2.012500e+02,   -1.818182e+02,    0.000000e+00
    6585,   -1.850000e+02,   -1.745455e+02,    0.000000e+00
    6586,   -2.012500e+02,   -1.963636e+02,    0.000000e+00
    6587,   -1.850000e+02,   -1.890909e+02,    0.000000e+00
    6588,   -2.012500e+02,   -2.109091e+02,    0.000000e+00
    6589,   -1.850000e+02,   -2.036364e+02,    0.000000e+00
    6590,   -2.012500e+02,   -2.254545e+02,    0.000000e+00
    6591,   -1.850000e+02,   -2.181818e+02,    0.000000e+00
    6592,   -1.850000e+02,   -2.327273e+02,    0.000000e+00
    6593,   -1.687500e+02,   -9.454545e+01,    0.000000e+00
    6594,   -1.525000e+02,   -8.727273e+01,    0.000000e+00
    6595,   -1.687500e+02,   -1.090909e+02,    0.000000e+00
    6596,   -1.525000e+02,   -1.018182e+02,    0.000000e+00
    6597,   -1.687500e+02,   -1.236364e+02,    0.000000e+00
    6598,   -1.525000e+02,   -1.163636e+02,    0.000000e+00
    6599,   -1.687500e+02,   -1.381818e+02,    0.000000e+00
    6600,   -1.525000e+02,   -1.309091e+02,    0.000000e+00
    6601,   -1.687500e+02,   -1.527273e+02,    0.000000e+00
    6602,   -1.525000e+02,   -1.454545e+02,    0.000000e+00
    6603,   -1.687500e+02,   -1.672727e+02,    0.000000e+00
    6604,   -1.525000e+02,   -1.600000e+02,    0.000000e+00
    6605,   -1.687500e+02,   -1.818182e+02,    0.000000e+00
    6606,   -1.525000e+02,   -1.745455e+02,    0.000000e+00
    6607,   -1.687500e+02,   -1.963636e+02,    0.000000e+00
    6608,   -1.525000e+02,   -1.890909e+02,    0.000000e+00
    6609,   -1.687500e+02,   -2.109091e+02,    0.000000e+00
    6610,   -1.525000e+02,   -2.036364e+02,    0.000000e+00
    6611,   -1.687500e+02,   -2.254545e+02,    0.000000e+00
    6612,   -1.525000e+02,   -2.181818e+02,    0.000000e+00
    6613,   -1.525000e+02,   -2.327273e+02,    0.000000e+00
    6614,   -1.362500e+02,   -9.454545e+01,    0.000000e+00
    6615,   -1.362500e+02,   -1.090909e+02,    0.000000e+00
    6616,   -1.362500e+02,   -1.236364e+02,    0.000000e+00
    6617,   -1.362500e+02,   -1.381818e+02,    0.000000e+00
    6618,   -1.362500e+02,   -1.527273e+02,    0.000000e+00
    6619,   -1.362500e+02,   -1.672727e+02,    0.000000e+00
    6620,   -1.362500e+02,   -1.818182e+02,    0.000000e+00
    6621,   -1.362500e+02,   -1.963636e+02,    0.000000e+00
    6622,   -1.362500e+02,   -2.109091e+02,    0.000000e+00
    6623,   -1.362500e+02,   -2.254545e+02,    0.000000e+00
    6624,   -1.108655e+02,   -8.000000e+01,   -4.592201e+01
    6625,   -4.592201e+01,   -8.000000e+01,   -1.108655e+02
    6626,   -4.592201e+01,   -2.254545e+02,   -1.108655e+02
    6627,   -8.485281e+01,   -2.327273e+02,   -8.485281e+01
    6628,   -4.592201e+01,   -2.109091e+02,   -1.108655e+02
    6629,   -8.485281e+01,   -2.181818e+02,   -8.485281e+01
    6630,   -4.592201e+01,   -1.963636e+02,   -1.108655e+02
    6631,   -8.485281e+01,   -2.036364e+02,   -8.485281e+01
    6632,   -4.592201e+01,   -1.818182e+02,   -1.108655e+02
    6633,   -8.485281e+01,   -1.890909e+02,   -8.485281e+01
    6634,   -4.592201e+01,   -1.672727e+02,   -1.108655e+02
    6635,   -8.485281e+01,   -1.745455e+02,   -8.485281e+01
    6636,   -4.592201e+01,   -1.527273e+02,   -1.108655e+02
    6637,   -8.485281e+01,   -1.600000e+02,   -8.485281e+01
    6638,   -4.592201e+01,   -1.381818e+02,   -1.108655e+02
    6639,   -8.485281e+01,   -1.454545e+02,   -8.485281e+01
    6640,   -4.592201e+01,   -1.236364e+02,   -1.108655e+02
    6641,   -8.485281e+01,   -1.309091e+02,   -8.485281e+01
    6642,   -4.592201e+01,   -1.090909e+02,   -1.108655e+02
    6643,   -8.485281e+01,   -1.163636e+02,   -8.485281e+01
    6644,   -4.592201e+01,   -9.454545e+01,   -1.108655e+02
    6645,   -8.485281e+01,   -1.018182e+02,   -8.485281e+01
    6646,   -8.485281e+01,   -8.727273e+01,   -8.485281e+01
    6647,   -1.108655e+02,   -2.254545e+02,   -4.592201e+01
    6648,   -1.108655e+02,   -2.109091e+02,   -4.592201e+01
    6649,   -1.108655e+02,   -1.963636e+02,   -4.592201e+01
    6650,   -1.108655e+02,   -1.818182e+02,   -4.592201e+01
    6651,   -1.108655e+02,   -1.672727e+02,   -4.592201e+01
    6652,   -1.108655e+02,   -1.527273e+02,   -4.592201e+01
    6653,   -1.108655e+02,   -1.381818e+02,   -4.592201e+01
    6654,   -1.108655e+02,   -1.236364e+02,   -4.592201e+01
    6655,   -1.108655e+02,   -1.090909e+02,   -4.592201e+01
    6656,   -1.108655e+02,   -9.454545e+01,   -4.592201e+01
    6657,   -2.500000e+02,   -8.000000e+01,   -1.785714e+01
    6658,   -2.500000e+02,   -8.000000e+01,   -5.357143e+01
    6659,   -2.500000e+02,   -8.000000e+01,   -8.928571e+01
    6660,   -2.500000e+02,   -8.000000e+01,   -1.250000e+02
    6661,   -2.500000e+02,   -8.000000e+01,   -1.607143e+02
    6662,   -2.500000e+02,   -8.000000e+01,   -1.964286e+02
    6663,   -2.500000e+02,   -8.000000e+01,   -2.321429e+02
    6664,   -2.500000e+02,   -2.254545e+02,   -1.785714e+01
    6665,   -2.500000e+02,   -2.327273e+02,   -3.571429e+01
    6666,   -2.500000e+02,   -2.109091e+02,   -1.785714e+01
    6667,   -2.500000e+02,   -2.181818e+02,   -3.571429e+01
    6668,   -2.500000e+02,   -1.963636e+02,   -1.785714e+01
    6669,   -2.500000e+02,   -2.036364e+02,   -3.571429e+01
    6670,   -2.500000e+02,   -1.818182e+02,   -1.785714e+01
    6671,   -2.500000e+02,   -1.890909e+02,   -3.571429e+01
    6672,   -2.500000e+02,   -1.672727e+02,   -1.785714e+01
    6673,   -2.500000e+02,   -1.745455e+02,   -3.571429e+01
    6674,   -2.500000e+02,   -1.527273e+02,   -1.785714e+01
    6675,   -2.500000e+02,   -1.600000e+02,   -3.571429e+01
    6676,   -2.500000e+02,   -1.381818e+02,   -1.785714e+01
    6677,   -2.500000e+02,   -1.454545e+02,   -3.571429e+01
    6678,   -2.500000e+02,   -1.236364e+02,   -1.785714e+01
    6679,   -2.500000e+02,   -1.309091e+02,   -3.571429e+01
    6680,   -2.500000e+02,   -1.090909e+02,   -1.785714e+01
    6681,   -2.500000e+02,   -1.163636e+02,   -3.571429e+01
    6682,   -2.500000e+02,   -9.454545e+01,   -1.785714e+01
    6683,   -2.500000e+02,   -1.018182e+02,   -3.571429e+01
    6684,   -2.500000e+02,   -8.727273e+01,   -3.571429e+01
    6685,   -2.500000e+02,   -2.254545e+02,   -5.357143e+01
    6686,   -2.500000e+02,   -2.327273e+02,   -7.142857e+01
    6687,   -2.500000e+02,   -2.109091e+02,   -5.357143e+01
    6688,   -2.500000e+02,   -2.181818e+02,   -7.142857e+01
    6689,   -2.500000e+02,   -1.963636e+02,   -5.357143e+01
    6690,   -2.500000e+02,   -2.036364e+02,   -7.142857e+01
    6691,   -2.500000e+02,   -1.818182e+02,   -5.357143e+01
    6692,   -2.500000e+02,   -1.890909e+02,   -7.142857e+01
    6693,   -2.500000e+02,   -1.672727e+02,   -5.357143e+01
    6694,   -2.500000e+02,   -1.745455e+02,   -7.142857e+01
    6695,   -2.500000e+02,   -1.527273e+02,   -5.357143e+01
    6696,   -2.500000e+02,   -1.600000e+02,   -7.142857e+01
    6697,   -2.500000e+02,   -1.381818e+02,   -5.357143e+01
    6698,   -2.500000e+02,   -1.454545e+02,   -7.142857e+01
    6699,   -2.500000e+02,   -1.236364e+02,   -5.357143e+01
    6700,   -2.500000e+02,   -1.309091e+02,   -7.142857e+01
    6701,   -2.500000e+02,   -1.090909e+02,   -5.357143e+01
    6702,   -2.500000e+02,   -1.163636e+02,   -7.142857e+01
    6703,   -2.500000e+02,   -9.454545e+01,   -5.357143e+01
    6704,   -2.500000e+02,   -1.018182e+02,   -7.142857e+01
    6705,   -2.500000e+02,   -8.727273e+01,   -7.142857e+01
    6706,   -2.500000e+02,   -2.254545e+02,   -8.928571e+01
    6707,   -2.500000e+02,   -2.327273e+02,   -1.071429e+02
    6708,   -2.500000e+02,   -2.109091e+02,   -8.928571e+01
    6709,   -2.500000e+02,   -2.181818e+02,   -1.071429e+02
    6710,   -2.500000e+02,   -1.963636e+02,   -8.928571e+01
    6711,   -2.500000e+02,   -2.036364e+02,   -1.071429e+02
    6712,   -2.500000e+02,   -1.818182e+02,   -8.928571e+01
    6713,   -2.500000e+02,   -1.890909e+02,   -1.071429e+02
    6714,   -2.500000e+02,   -1.672727e+02,   -8.928571e+01
    6715,   -2.500000e+02,   -1.745455e+02,   -1.071429e+02
    6716,   -2.500000e+02,   -1.527273e+02,   -8.928571e+01
    6717,   -2.500000e+02,   -1.600000e+02,   -1.071429e+02
    6718,   -2.500000e+02,   -1.381818e+02,   -8.928571e+01
    6719,   -2.500000e+02,   -1.454545e+02,   -1.071429e+02
    6720,   -2.500000e+02,   -1.236364e+02,   -8.928571e+01
    6721,   -2.500000e+02,   -1.309091e+02,   -1.071429e+02
    6722,   -2.500000e+02,   -1.090909e+02,   -8.928571e+01
    6723,   -2.500000e+02,   -1.163636e+02,   -1.071429e+02
    6724,   -2.500000e+02,   -9.454545e+01,   -8.928571e+01
    6725,   -2.500000e+02,   -1.018182e+02,   -1.071429e+02
    6726,   -2.500000e+02,   -8.727273e+01,   -1.071429e+02
    6727,   -2.500000e+02,   -2.254545e+02,   -1.250000e+02
    6728,   -2.500000e+02,   -2.327273e+02,   -1.428571e+02
    6729,   -2.500000e+02,   -2.109091e+02,   -1.250000e+02
    6730,   -2.500000e+02,   -2.181818e+02,   -1.428571e+02
    6731,   -2.500000e+02,   -1.963636e+02,   -1.250000e+02
    6732,   -2.500000e+02,   -2.036364e+02,   -1.428571e+02
    6733,   -2.500000e+02,   -1.818182e+02,   -1.250000e+02
    6734,   -2.500000e+02,   -1.890909e+02,   -1.428571e+02
    6735,   -2.500000e+02,   -1.672727e+02,   -1.250000e+02
    6736,   -2.500000e+02,   -1.745455e+02,   -1.428571e+02
    6737,   -2.500000e+02,   -1.527273e+02,   -1.250000e+02
    6738,   -2.500000e+02,   -1.600000e+02,   -1.428571e+02
    6739,   -2.500000e+02,   -1.381818e+02,   -1.250000e+02
    6740,   -2.500000e+02,   -1.454545e+02,   -1.428571e+02
    6741,   -2.500000e+02,   -1.236364e+02,   -1.250000e+02
    6742,   -2.500000e+02,   -1.309091e+02,   -1.428571e+02
    6743,   -2.500000e+02,   -1.090909e+02,   -1.250000e+02
    6744,   -2.500000e+02,   -1.163636e+02,   -1.428571e+02
    6745,   -2.500000e+02,   -9.454545e+01,   -1.250000e+02
    6746,   -2.500000e+02,   -1.018182e+02,   -1.428571e+02
    6747,   -2.500000e+02,   -8.727273e+01,   -1.428571e+02
    6748,   -2.500000e+02,   -2.254545e+02,   -1.607143e+02
    6749,   -2.500000e+02,   -2.327273e+02,   -1.785714e+02
    6750,   -2.500000e+02,   -2.109091e+02,   -1.607143e+02
    6751,   -2.500000e+02,   -2.181818e+02,   -1.785714e+02
    6752,   -2.500000e+02,   -1.963636e+02,   -1.607143e+02
    6753,   -2.500000e+02,   -2.036364e+02,   -1.785714e+02
    6754,   -2.500000e+02,   -1.818182e+02,   -1.607143e+02
    6755,   -2.500000e+02,   -1.890909e+02,   -1.785714e+02
    6756,   -2.500000e+02,   -1.672727e+02,   -1.607143e+02
    6757,   -2.500000e+02,   -1.745455e+02,   -1.785714e+02
    6758,   -2.500000e+02,   -1.527273e+02,   -1.607143e+02
    6759,   -2.500000e+02,   -1.600000e+02,   -1.785714e+02
    6760,   -2.500000e+02,   -1.381818e+02,   -1.607143e+02
    6761,   -2.500000e+02,   -1.454545e+02,   -1.785714e+02
    6762,   -2.500000e+02,   -1.236364e+02,   -1.607143e+02
    6763,   -2.500000e+02,   -1.309091e+02,   -1.785714e+02
    6764,   -2.500000e+02,   -1.090909e+02,   -1.607143e+02
    6765,   -2.500000e+02,   -1.163636e+02,   -1.785714e+02
    6766,   -2.500000e+02,   -9.454545e+01,   -1.607143e+02
    6767,   -2.500000e+02,   -1.018182e+02,   -1.785714e+02
    6768,   -2.500000e+02,   -8.727273e+01,   -1.785714e+02
    6769,   -2.500000e+02,   -2.254545e+02,   -1.964286e+02
    6770,   -2.500000e+02,   -2.327273e+02,   -2.142857e+02
    6771,   -2.500000e+02,   -2.109091e+02,   -1.964286e+02
    6772,   -2.500000e+02,   -2.181818e+02,   -2.142857e+02
    6773,   -2.500000e+02,   -1.963636e+02,   -1.964286e+02
    6774,   -2.500000e+02,   -2.036364e+02,   -2.142857e+02
    6775,   -2.500000e+02,   -1.818182e+02,   -1.964286e+02
    6776,   -2.500000e+02,   -1.890909e+02,   -2.142857e+02
    6777,   -2.500000e+02,   -1.672727e+02,   -1.964286e+02
    6778,   -2.500000e+02,   -1.745455e+02,   -2.142857e+02
    6779,   -2.500000e+02,   -1.527273e+02,   -1.964286e+02
    6780,   -2.500000e+02,   -1.600000e+02,   -2.142857e+02
    6781,   -2.500000e+02,   -1.381818e+02,   -1.964286e+02
    6782,   -2.500000e+02,   -1.454545e+02,   -2.142857e+02
    6783,   -2.500000e+02,   -1.236364e+02,   -1.964286e+02
    6784,   -2.500000e+02,   -1.309091e+02,   -2.142857e+02
    6785,   -2.500000e+02,   -1.090909e+02,   -1.964286e+02
    6786,   -2.500000e+02,   -1.163636e+02,   -2.142857e+02
    6787,   -2.500000e+02,   -9.454545e+01,   -1.964286e+02
    6788,   -2.500000e+02,   -1.018182e+02,   -2.142857e+02
    6789,   -2.500000e+02,   -8.727273e+01,   -2.142857e+02
    6790,   -2.500000e+02,   -2.254545e+02,   -2.321429e+02
    6791,   -2.500000e+02,   -2.109091e+02,   -2.321429e+02
    6792,   -2.500000e+02,   -1.963636e+02,   -2.321429e+02
    6793,   -2.500000e+02,   -1.818182e+02,   -2.321429e+02
    6794,   -2.500000e+02,   -1.672727e+02,   -2.321429e+02
    6795,   -2.500000e+02,   -1.527273e+02,   -2.321429e+02
    6796,   -2.500000e+02,   -1.381818e+02,   -2.321429e+02
    6797,   -2.500000e+02,   -1.236364e+02,   -2.321429e+02
    6798,   -2.500000e+02,   -1.090909e+02,   -2.321429e+02
    6799,   -2.500000e+02,   -9.454545e+01,   -2.321429e+02
    6800,   -3.730356e+01,   -8.000000e+01,   -1.419906e+02
    6801,   -7.972997e+01,   -8.000000e+01,   -1.081670e+02
    6802,   -2.374507e+01,   -8.000000e+01,   -1.821404e+02
    6803,   -6.104863e+01,   -8.000000e+01,   -1.553810e+02
    6804,   -1.976293e+01,   -8.000000e+01,   -2.166807e+02
    6805,   -4.350801e+01,   -8.000000e+01,   -1.975712e+02
    6806,   -3.762008e+01,   -8.000000e+01,   -2.329307e+02
    6807,   -2.159338e+02,   -8.000000e+01,   -1.930846e+01
    6808,   -2.321838e+02,   -8.000000e+01,   -3.716560e+01
    6809,   -1.816647e+02,   -8.000000e+01,   -2.165910e+01
    6810,   -1.963485e+02,   -8.000000e+01,   -4.096756e+01
    6811,   -1.121744e+02,   -8.000000e+01,   -6.905501e+01
    6812,   -1.459980e+02,   -8.000000e+01,   -2.662861e+01
    6813,   -7.421308e+01,   -8.000000e+01,   -2.334332e+02
    6814,   -5.826173e+01,   -8.000000e+01,   -2.163640e+02
    6815,   -1.093446e+02,   -8.000000e+01,   -2.344925e+02
    6816,   -9.427196e+01,   -8.000000e+01,   -2.179258e+02
    6817,   -1.438780e+02,   -8.000000e+01,   -2.344392e+02
    6818,   -1.282226e+02,   -8.000000e+01,   -2.189318e+02
    6819,   -1.791248e+02,   -8.000000e+01,   -2.337456e+02
    6820,   -1.622885e+02,   -8.000000e+01,   -2.181849e+02
    6821,   -2.145012e+02,   -8.000000e+01,   -2.329466e+02
    6822,   -1.971974e+02,   -8.000000e+01,   -2.166923e+02
    6823,   -2.323583e+02,   -8.000000e+01,   -2.150895e+02
    6824,   -2.323523e+02,   -8.000000e+01,   -1.801406e+02
    6825,   -2.147106e+02,   -8.000000e+01,   -1.988015e+02
    6826,   -2.316970e+02,   -8.000000e+01,   -1.451348e+02
    6827,   -2.140493e+02,   -8.000000e+01,   -1.645611e+02
    6828,   -2.304800e+02,   -8.000000e+01,   -1.098350e+02
    6829,   -2.121769e+02,   -8.000000e+01,   -1.299698e+02
    6830,   -2.311307e+02,   -8.000000e+01,   -7.396878e+01
    6831,   -2.116106e+02,   -8.000000e+01,   -9.451805e+01
    6832,   -2.133144e+02,   -8.000000e+01,   -5.756295e+01
    6833,   -1.763348e+02,   -8.000000e+01,   -6.390749e+01
    6834,   -1.933008e+02,   -8.000000e+01,   -8.050288e+01
    6835,   -6.717709e+01,   -8.000000e+01,   -1.814474e+02
    6836,   -9.538850e+01,   -8.000000e+01,   -1.679052e+02
    6837,   -8.926004e+01,   -8.000000e+01,   -1.418388e+02
    6838,   -8.193082e+01,   -8.000000e+01,   -2.002402e+02
    6839,   -1.972727e+02,   -8.000000e+01,   -1.834391e+02
    6840,   -1.797594e+02,   -8.000000e+01,   -2.013299e+02
    6841,   -1.956368e+02,   -8.000000e+01,   -1.505237e+02
    6842,   -1.788601e+02,   -8.000000e+01,   -1.694017e+02
    6843,   -1.926930e+02,   -8.000000e+01,   -1.167485e+02
    6844,   -1.761528e+02,   -8.000000e+01,   -1.373024e+02
    6845,   -1.743831e+02,   -8.000000e+01,   -1.027333e+02
    6846,   -1.630931e+02,   -8.000000e+01,   -1.869848e+02
    6847,   -1.456222e+02,   -8.000000e+01,   -2.038398e+02
    6848,   -1.617266e+02,   -8.000000e+01,   -1.573710e+02
    6849,   -1.459595e+02,   -8.000000e+01,   -1.749541e+02
    6850,   -1.139170e+02,   -8.000000e+01,   -2.045013e+02
    6851,   -1.015759e+02,   -8.000000e+01,   -1.868157e+02
    6852,   -1.313166e+02,   -8.000000e+01,   -1.894093e+02
    6853,   -1.561353e+02,   -8.000000e+01,   -1.272295e+02
    6854,   -1.417090e+02,   -8.000000e+01,   -1.472981e+02
    6855,   -1.190475e+02,   -8.000000e+01,   -1.788487e+02
    6856,   -1.128601e+02,   -8.000000e+01,   -1.599382e+02
    6857,   -1.336904e+02,   -8.000000e+01,   -1.643935e+02
    6858,   -1.589127e+02,   -8.000000e+01,   -4.828771e+01
    6859,   -1.208787e+02,   -8.000000e+01,   -1.428428e+02
    6860,   -1.531196e+02,   -8.000000e+01,   -9.172066e+01
    6861,   -1.348718e+02,   -8.000000e+01,   -1.162168e+02
    6862,   -1.356975e+02,   -8.000000e+01,   -7.610088e+01
    6863,   -1.032531e+02,   -8.000000e+01,   -1.152129e+02
    6864,   -1.032531e+02,   -9.454545e+01,   -1.152129e+02
    6865,   -8.926004e+01,   -9.454545e+01,   -1.418388e+02
    6866,   -1.208787e+02,   -9.454545e+01,   -1.428428e+02
    6867,   -1.348718e+02,   -9.454545e+01,   -1.162168e+02
    6868,   -1.318990e+02,   -8.727273e+01,   -9.894454e+01
    6869,   -7.460712e+01,   -8.727273e+01,   -1.314812e+02
    6870,   -1.039130e+02,   -8.727273e+01,   -1.521965e+02
    6871,   -1.378445e+02,   -8.727273e+01,   -1.334891e+02
    6872,   -1.121744e+02,   -9.454545e+01,   -6.905501e+01
    6873,   -7.972997e+01,   -9.454545e+01,   -1.081670e+02
    6874,   -1.356975e+02,   -9.454545e+01,   -7.610088e+01
    6875,   -1.394960e+02,   -8.727273e+01,   -5.325721e+01
    6876,   -1.589127e+02,   -9.454545e+01,   -4.828771e+01
    6877,   -1.531196e+02,   -9.454545e+01,   -9.172066e+01
    6878,   -1.763348e+02,   -9.454545e+01,   -6.390749e+01
    6879,   -1.783295e+02,   -8.727273e+01,   -4.331821e+01
    6880,   -1.743402e+02,   -8.727273e+01,   -8.449678e+01
    6881,   -1.561353e+02,   -9.454545e+01,   -1.272295e+02
    6882,   -1.743831e+02,   -9.454545e+01,   -1.027333e+02
    6883,   -1.744260e+02,   -8.727273e+01,   -1.209699e+02
    6884,   -1.128601e+02,   -9.454545e+01,   -1.599382e+02
    6885,   -1.336904e+02,   -9.454545e+01,   -1.643935e+02
    6886,   -1.417090e+02,   -9.454545e+01,   -1.472981e+02
    6887,   -1.218073e+02,   -8.727273e+01,   -1.676800e+02
    6888,   -1.455735e+02,   -8.727273e+01,   -1.611071e+02
    6889,   -1.816647e+02,   -9.454545e+01,   -2.165910e+01
    6890,   -1.459980e+02,   -9.454545e+01,   -2.662861e+01
    6891,   -1.313166e+02,   -9.454545e+01,   -1.894093e+02
    6892,   -1.459595e+02,   -9.454545e+01,   -1.749541e+02
    6893,   -1.190475e+02,   -9.454545e+01,   -1.788487e+02
    6894,   -1.162877e+02,   -8.727273e+01,   -1.900174e+02
    6895,   -1.463455e+02,   -8.727273e+01,   -1.888011e+02
    6896,   -1.015759e+02,   -9.454545e+01,   -1.868157e+02
    6897,   -9.538850e+01,   -9.454545e+01,   -1.679052e+02
    6898,   -8.686404e+01,   -8.727273e+01,   -1.836139e+02
    6899,   -1.617266e+02,   -9.454545e+01,   -1.573710e+02
    6900,   -1.761528e+02,   -9.454545e+01,   -1.373024e+02
    6901,   -1.778796e+02,   -8.727273e+01,   -1.536348e+02
    6902,   -1.139170e+02,   -9.454545e+01,   -2.045013e+02
    6903,   -1.282226e+02,   -9.454545e+01,   -2.189318e+02
    6904,   -1.456222e+02,   -9.454545e+01,   -2.038398e+02
    6905,   -1.115463e+02,   -8.727273e+01,   -2.189851e+02
    6906,   -1.448988e+02,   -8.727273e+01,   -2.188785e+02
    6907,   -8.193082e+01,   -9.454545e+01,   -2.002402e+02
    6908,   -9.427196e+01,   -9.454545e+01,   -2.179258e+02
    6909,   -7.699760e+01,   -8.727273e+01,   -2.168664e+02
    6910,   -1.630931e+02,   -9.454545e+01,   -1.869848e+02
    6911,   -1.788601e+02,   -9.454545e+01,   -1.694017e+02
    6912,   -1.798407e+02,   -8.727273e+01,   -1.851685e+02
    6913,   -1.797594e+02,   -9.454545e+01,   -2.013299e+02
    6914,   -1.622885e+02,   -9.454545e+01,   -2.181849e+02
    6915,   -1.796782e+02,   -8.727273e+01,   -2.174912e+02
    6916,   -1.926930e+02,   -9.454545e+01,   -1.167485e+02
    6917,   -2.116106e+02,   -9.454545e+01,   -9.451805e+01
    6918,   -1.933008e+02,   -9.454545e+01,   -8.050288e+01
    6919,   -2.109599e+02,   -8.727273e+01,   -1.125271e+02
    6920,   -2.122614e+02,   -8.727273e+01,   -7.650898e+01
    6921,   -2.121769e+02,   -9.454545e+01,   -1.299698e+02
    6922,   -1.956368e+02,   -9.454545e+01,   -1.505237e+02
    6923,   -2.133939e+02,   -8.727273e+01,   -1.474125e+02
    6924,   -2.140493e+02,   -9.454545e+01,   -1.645611e+02
    6925,   -1.972727e+02,   -9.454545e+01,   -1.834391e+02
    6926,   -2.147047e+02,   -8.727273e+01,   -1.817097e+02
    6927,   -2.147106e+02,   -9.454545e+01,   -1.988015e+02
    6928,   -1.971974e+02,   -9.454545e+01,   -2.166923e+02
    6929,   -2.147166e+02,   -8.727273e+01,   -2.158933e+02
    6930,   -4.350801e+01,   -9.454545e+01,   -1.975712e+02
    6931,   -5.826173e+01,   -9.454545e+01,   -2.163640e+02
    6932,   -6.717709e+01,   -9.454545e+01,   -1.814474e+02
    6933,   -4.749014e+01,   -8.727273e+01,   -1.792809e+02
    6934,   -3.952587e+01,   -8.727273e+01,   -2.158615e+02
    6935,   -6.104863e+01,   -9.454545e+01,   -1.553810e+02
    6936,   -1.963485e+02,   -9.454545e+01,   -4.096756e+01
    6937,   -2.133144e+02,   -9.454545e+01,   -5.756295e+01
    6938,   -2.143675e+02,   -8.727273e+01,   -3.861692e+01
    6939,   -2.321838e+02,   -9.454545e+01,   -3.716560e+01
    6940,   -2.311307e+02,   -9.454545e+01,   -7.396878e+01
    6941,   -2.304800e+02,   -9.454545e+01,   -1.098350e+02
    6942,   -2.316970e+02,   -9.454545e+01,   -1.451348e+02
    6943,   -2.323523e+02,   -9.454545e+01,   -1.801406e+02
    6944,   -2.323583e+02,   -9.454545e+01,   -2.150895e+02
    6945,   -2.145012e+02,   -9.454545e+01,   -2.329466e+02
    6946,   -1.791248e+02,   -9.454545e+01,   -2.337456e+02
    6947,   -1.438780e+02,   -9.454545e+01,   -2.344392e+02
    6948,   -1.093446e+02,   -9.454545e+01,   -2.344925e+02
    6949,   -7.421308e+01,   -9.454545e+01,   -2.334332e+02
    6950,   -3.762008e+01,   -9.454545e+01,   -2.329307e+02
    6951,   -2.159338e+02,   -9.454545e+01,   -1.930846e+01
    6952,   -1.976293e+01,   -9.454545e+01,   -2.166807e+02
    6953,   -2.374507e+01,   -9.454545e+01,   -1.821404e+02
    6954,   -3.730356e+01,   -9.454545e+01,   -1.419906e+02
    6955,   -1.032531e+02,   -1.090909e+02,   -1.152129e+02
    6956,   -8.926004e+01,   -1.090909e+02,   -1.418388e+02
    6957,   -1.208787e+02,   -1.090909e+02,   -1.428428e+02
    6958,   -1.348718e+02,   -1.090909e+02,   -1.162168e+02
    6959,   -1.318990e+02,   -1.018182e+02,   -9.894454e+01
    6960,   -7.460712e+01,   -1.018182e+02,   -1.314812e+02
    6961,   -1.039130e+02,   -1.018182e+02,   -1.521965e+02
    6962,   -1.378445e+02,   -1.018182e+02,   -1.334891e+02
    6963,   -1.121744e+02,   -1.090909e+02,   -6.905501e+01
    6964,   -7.972997e+01,   -1.090909e+02,   -1.081670e+02
    6965,   -1.356975e+02,   -1.090909e+02,   -7.610088e+01
    6966,   -1.394960e+02,   -1.018182e+02,   -5.325721e+01
    6967,   -1.589127e+02,   -1.090909e+02,   -4.828771e+01
    6968,   -1.531196e+02,   -1.090909e+02,   -9.172066e+01
    6969,   -1.763348e+02,   -1.090909e+02,   -6.390749e+01
    6970,   -1.783295e+02,   -1.018182e+02,   -4.331821e+01
    6971,   -1.743402e+02,   -1.018182e+02,   -8.449678e+01
    6972,   -1.561353e+02,   -1.090909e+02,   -1.272295e+02
    6973,   -1.743831e+02,   -1.090909e+02,   -1.027333e+02
    6974,   -1.744260e+02,   -1.018182e+02,   -1.209699e+02
    6975,   -1.128601e+02,   -1.090909e+02,   -1.599382e+02
    6976,   -1.336904e+02,   -1.090909e+02,   -1.643935e+02
    6977,   -1.417090e+02,   -1.090909e+02,   -1.472981e+02
    6978,   -1.218073e+02,   -1.018182e+02,   -1.676800e+02
    6979,   -1.455735e+02,   -1.018182e+02,   -1.611071e+02
    6980,   -1.816647e+02,   -1.090909e+02,   -2.165910e+01
    6981,   -1.459980e+02,   -1.090909e+02,   -2.662861e+01
    6982,   -1.313166e+02,   -1.090909e+02,   -1.894093e+02
    6983,   -1.459595e+02,   -1.090909e+02,   -1.749541e+02
    6984,   -1.190475e+02,   -1.090909e+02,   -1.788487e+02
    6985,   -1.162877e+02,   -1.018182e+02,   -1.900174e+02
    6986,   -1.463455e+02,   -1.018182e+02,   -1.888011e+02
    6987,   -1.015759e+02,   -1.090909e+02,   -1.868157e+02
    6988,   -9.538850e+01,   -1.090909e+02,   -1.679052e+02
    6989,   -8.686404e+01,   -1.018182e+02,   -1.836139e+02
    6990,   -1.617266e+02,   -1.090909e+02,   -1.573710e+02
    6991,   -1.761528e+02,   -1.090909e+02,   -1.373024e+02
    6992,   -1.778796e+02,   -1.018182e+02,   -1.536348e+02
    6993,   -1.139170e+02,   -1.090909e+02,   -2.045013e+02
    6994,   -1.282226e+02,   -1.090909e+02,   -2.189318e+02
    6995,   -1.456222e+02,   -1.090909e+02,   -2.038398e+02
    6996,   -1.115463e+02,   -1.018182e+02,   -2.189851e+02
    6997,   -1.448988e+02,   -1.018182e+02,   -2.188785e+02
    6998,   -8.193082e+01,   -1.090909e+02,   -2.002402e+02
    6999,   -9.427196e+01,   -1.090909e+02,   -2.179258e+02
    7000,   -7.699760e+01,   -1.018182e+02,   -2.168664e+02
    7001,   -1.630931e+02,   -1.090909e+02,   -1.869848e+02
    7002,   -1.788601e+02,   -1.090909e+02,   -1.694017e+02
    7003,   -1.798407e+02,   -1.018182e+02,   -1.851685e+02
    7004,   -1.797594e+02,   -1.090909e+02,   -2.013299e+02
    7005,   -1.622885e+02,   -1.090909e+02,   -2.181849e+02
    7006,   -1.796782e+02,   -1.018182e+02,   -2.174912e+02
    7007,   -1.926930e+02,   -1.090909e+02,   -1.167485e+02
    7008,   -2.116106e+02,   -1.090909e+02,   -9.451805e+01
    7009,   -1.933008e+02,   -1.090909e+02,   -8.050288e+01
    7010,   -2.109599e+02,   -1.018182e+02,   -1.125271e+02
    7011,   -2.122614e+02,   -1.018182e+02,   -7.650898e+01
    7012,   -2.121769e+02,   -1.090909e+02,   -1.299698e+02
    7013,   -1.956368e+02,   -1.090909e+02,   -1.505237e+02
    7014,   -2.133939e+02,   -1.018182e+02,   -1.474125e+02
    7015,   -2.140493e+02,   -1.090909e+02,   -1.645611e+02
    7016,   -1.972727e+02,   -1.090909e+02,   -1.834391e+02
    7017,   -2.147047e+02,   -1.018182e+02,   -1.817097e+02
    7018,   -2.147106e+02,   -1.090909e+02,   -1.988015e+02
    7019,   -1.971974e+02,   -1.090909e+02,   -2.166923e+02
    7020,   -2.147166e+02,   -1.018182e+02,   -2.158933e+02
    7021,   -4.350801e+01,   -1.090909e+02,   -1.975712e+02
    7022,   -5.826173e+01,   -1.090909e+02,   -2.163640e+02
    7023,   -6.717709e+01,   -1.090909e+02,   -1.814474e+02
    7024,   -4.749014e+01,   -1.018182e+02,   -1.792809e+02
    7025,   -3.952587e+01,   -1.018182e+02,   -2.158615e+02
    7026,   -6.104863e+01,   -1.090909e+02,   -1.553810e+02
    7027,   -1.963485e+02,   -1.090909e+02,   -4.096756e+01
    7028,   -2.133144e+02,   -1.090909e+02,   -5.756295e+01
    7029,   -2.143675e+02,   -1.018182e+02,   -3.861692e+01
    7030,   -2.321838e+02,   -1.090909e+02,   -3.716560e+01
    7031,   -2.311307e+02,   -1.090909e+02,   -7.396878e+01
    7032,   -2.304800e+02,   -1.090909e+02,   -1.098350e+02
    7033,   -2.316970e+02,   -1.090909e+02,   -1.451348e+02
    7034,   -2.323523e+02,   -1.090909e+02,   -1.801406e+02
    7035,   -2.323583e+02,   -1.090909e+02,   -2.150895e+02
    7036,   -2.145012e+02,   -1.090909e+02,   -2.329466e+02
    7037,   -1.791248e+02,   -1.090909e+02,   -2.337456e+02
    7038,   -1.438780e+02,   -1.090909e+02,   -2.344392e+02
    7039,   -1.093446e+02,   -1.090909e+02,   -2.344925e+02
    7040,   -7.421308e+01,   -1.090909e+02,   -2.334332e+02
    7041,   -3.762008e+01,   -1.090909e+02,   -2.329307e+02
    7042,   -2.159338e+02,   -1.090909e+02,   -1.930846e+01
    7043,   -1.976293e+01,   -1.090909e+02,   -2.166807e+02
    7044,   -2.374507e+01,   -1.090909e+02,   -1.821404e+02
    7045,   -3.730356e+01,   -1.090909e+02,   -1.419906e+02
    7046,   -1.032531e+02,   -1.236364e+02,   -1.152129e+02
    7047,   -8.926004e+01,   -1.236364e+02,   -1.418388e+02
    7048,   -1.208787e+02,   -1.236364e+02,   -1.428428e+02
    7049,   -1.348718e+02,   -1.236364e+02,   -1.162168e+02
    7050,   -1.318990e+02,   -1.163636e+02,   -9.894454e+01
    7051,   -7.460712e+01,   -1.163636e+02,   -1.314812e+02
    7052,   -1.039130e+02,   -1.163636e+02,   -1.521965e+02
    7053,   -1.378445e+02,   -1.163636e+02,   -1.334891e+02
    7054,   -1.121744e+02,   -1.236364e+02,   -6.905501e+01
    7055,   -7.972997e+01,   -1.236364e+02,   -1.081670e+02
    7056,   -1.356975e+02,   -1.236364e+02,   -7.610088e+01
    7057,   -1.394960e+02,   -1.163636e+02,   -5.325721e+01
    7058,   -1.589127e+02,   -1.236364e+02,   -4.828771e+01
    7059,   -1.531196e+02,   -1.236364e+02,   -9.172066e+01
    7060,   -1.763348e+02,   -1.236364e+02,   -6.390749e+01
    7061,   -1.783295e+02,   -1.163636e+02,   -4.331821e+01
    7062,   -1.743402e+02,   -1.163636e+02,   -8.449678e+01
    7063,   -1.561353e+02,   -1.236364e+02,   -1.272295e+02
    7064,   -1.743831e+02,   -1.236364e+02,   -1.027333e+02
    7065,   -1.744260e+02,   -1.163636e+02,   -1.209699e+02
    7066,   -1.128601e+02,   -1.236364e+02,   -1.599382e+02
    7067,   -1.336904e+02,   -1.236364e+02,   -1.643935e+02
    7068,   -1.417090e+02,   -1.236364e+02,   -1.472981e+02
    7069,   -1.218073e+02,   -1.163636e+02,   -1.676800e+02
    7070,   -1.455735e+02,   -1.163636e+02,   -1.611071e+02
    7071,   -1.816647e+02,   -1.236364e+02,   -2.165910e+01
    7072,   -1.459980e+02,   -1.236364e+02,   -2.662861e+01
    7073,   -1.313166e+02,   -1.236364e+02,   -1.894093e+02
    7074,   -1.459595e+02,   -1.236364e+02,   -1.749541e+02
    7075,   -1.190475e+02,   -1.236364e+02,   -1.788487e+02
    7076,   -1.162877e+02,   -1.163636e+02,   -1.900174e+02
    7077,   -1.463455e+02,   -1.163636e+02,   -1.888011e+02
    7078,   -1.015759e+02,   -1.236364e+02,   -1.868157e+02
    7079,   -9.538850e+01,   -1.236364e+02,   -1.679052e+02
    7080,   -8.686404e+01,   -1.163636e+02,   -1.836139e+02
    7081,   -1.617266e+02,   -1.236364e+02,   -1.573710e+02
    7082,   -1.761528e+02,   -1.236364e+02,   -1.373024e+02
    7083,   -1.778796e+02,   -1.163636e+02,   -1.536348e+02
    7084,   -1.139170e+02,   -1.236364e+02,   -2.045013e+02
    7085,   -1.282226e+02,   -1.236364e+02,   -2.189318e+02
    7086,   -1.456222e+02,   -1.236364e+02,   -2.038398e+02
    7087,   -1.115463e+02,   -1.163636e+02,   -2.189851e+02
    7088,   -1.448988e+02,   -1.163636e+02,   -2.188785e+02
    7089,   -8.193082e+01,   -1.236364e+02,   -2.002402e+02
    7090,   -9.427196e+01,   -1.236364e+02,   -2.179258e+02
    7091,   -7.699760e+01,   -1.163636e+02,   -2.168664e+02
    7092,   -1.630931e+02,   -1.236364e+02,   -1.869848e+02
    7093,   -1.788601e+02,   -1.236364e+02,   -1.694017e+02
    7094,   -1.798407e+02,   -1.163636e+02,   -1.851685e+02
    7095,   -1.797594e+02,   -1.236364e+02,   -2.013299e+02
    7096,   -1.622885e+02,   -1.236364e+02,   -2.181849e+02
    7097,   -1.796782e+02,   -1.163636e+02,   -2.174912e+02
    7098,   -1.926930e+02,   -1.236364e+02,   -1.167485e+02
    7099,   -2.116106e+02,   -1.236364e+02,   -9.451805e+01
    7100,   -1.933008e+02,   -1.236364e+02,   -8.050288e+01
    7101,   -2.109599e+02,   -1.163636e+02,   -1.125271e+02
    7102,   -2.122614e+02,   -1.163636e+02,   -7.650898e+01
    7103,   -2.121769e+02,   -1.236364e+02,   -1.299698e+02
    7104,   -1.956368e+02,   -1.236364e+02,   -1.505237e+02
    7105,   -2.133939e+02,   -1.163636e+02,   -1.474125e+02
    7106,   -2.140493e+02,   -1.236364e+02,   -1.645611e+02
    7107,   -1.972727e+02,   -1.236364e+02,   -1.834391e+02
    7108,   -2.147047e+02,   -1.163636e+02,   -1.817097e+02
    7109,   -2.147106e+02,   -1.236364e+02,   -1.988015e+02
    7110,   -1.971974e+02,   -1.236364e+02,   -2.166923e+02
    7111,   -2.147166e+02,   -1.163636e+02,   -2.158933e+02
    7112,   -4.350801e+01,   -1.236364e+02,   -1.975712e+02
    7113,   -5.826173e+01,   -1.236364e+02,   -2.163640e+02
    7114,   -6.717709e+01,   -1.236364e+02,   -1.814474e+02
    7115,   -4.749014e+01,   -1.163636e+02,   -1.792809e+02
    7116,   -3.952587e+01,   -1.163636e+02,   -2.158615e+02
    7117,   -6.104863e+01,   -1.236364e+02,   -1.553810e+02
    7118,   -1.963485e+02,   -1.236364e+02,   -4.096756e+01
    7119,   -2.133144e+02,   -1.236364e+02,   -5.756295e+01
    7120,   -2.143675e+02,   -1.163636e+02,   -3.861692e+01
    7121,   -2.321838e+02,   -1.236364e+02,   -3.716560e+01
    7122,   -2.311307e+02,   -1.236364e+02,   -7.396878e+01
    7123,   -2.304800e+02,   -1.236364e+02,   -1.098350e+02
    7124,   -2.316970e+02,   -1.236364e+02,   -1.451348e+02
    7125,   -2.323523e+02,   -1.236364e+02,   -1.801406e+02
    7126,   -2.323583e+02,   -1.236364e+02,   -2.150895e+02
    7127,   -2.145012e+02,   -1.236364e+02,   -2.329466e+02
    7128,   -1.791248e+02,   -1.236364e+02,   -2.337456e+02
    7129,   -1.438780e+02,   -1.236364e+02,   -2.344392e+02
    7130,   -1.093446e+02,   -1.236364e+02,   -2.344925e+02
    7131,   -7.421308e+01,   -1.236364e+02,   -2.334332e+02
    7132,   -3.762008e+01,   -1.236364e+02,   -2.329307e+02
    7133,   -2.159338e+02,   -1.236364e+02,   -1.930846e+01
    7134,   -1.976293e+01,   -1.236364e+02,   -2.166807e+02
    7135,   -2.374507e+01,   -1.236364e+02,   -1.821404e+02
    7136,   -3.730356e+01,   -1.236364e+02,   -1.419906e+02
    7137,   -1.032531e+02,   -1.381818e+02,   -1.152129e+02
    7138,   -8.926004e+01,   -1.381818e+02,   -1.418388e+02
    7139,   -1.208787e+02,   -1.381818e+02,   -1.428428e+02
    7140,   -1.348718e+02,   -1.381818e+02,   -1.162168e+02
    7141,   -1.318990e+02,   -1.309091e+02,   -9.894454e+01
    7142,   -7.460712e+01,   -1.309091e+02,   -1.314812e+02
    7143,   -1.039130e+02,   -1.309091e+02,   -1.521965e+02
    7144,   -1.378445e+02,   -1.309091e+02,   -1.334891e+02
    7145,   -1.121744e+02,   -1.381818e+02,   -6.905501e+01
    7146,   -7.972997e+01,   -1.381818e+02,   -1.081670e+02
    7147,   -1.356975e+02,   -1.381818e+02,   -7.610088e+01
    7148,   -1.394960e+02,   -1.309091e+02,   -5.325721e+01
    7149,   -1.589127e+02,   -1.381818e+02,   -4.828771e+01
    7150,   -1.531196e+02,   -1.381818e+02,   -9.172066e+01
    7151,   -1.763348e+02,   -1.381818e+02,   -6.390749e+01
    7152,   -1.783295e+02,   -1.309091e+02,   -4.331821e+01
    7153,   -1.743402e+02,   -1.309091e+02,   -8.449678e+01
    7154,   -1.561353e+02,   -1.381818e+02,   -1.272295e+02
    7155,   -1.743831e+02,   -1.381818e+02,   -1.027333e+02
    7156,   -1.744260e+02,   -1.309091e+02,   -1.209699e+02
    7157,   -1.128601e+02,   -1.381818e+02,   -1.599382e+02
    7158,   -1.336904e+02,   -1.381818e+02,   -1.643935e+02
    7159,   -1.417090e+02,   -1.381818e+02,   -1.472981e+02
    7160,   -1.218073e+02,   -1.309091e+02,   -1.676800e+02
    7161,   -1.455735e+02,   -1.309091e+02,   -1.611071e+02
    7162,   -1.816647e+02,   -1.381818e+02,   -2.165910e+01
    7163,   -1.459980e+02,   -1.381818e+02,   -2.662861e+01
    7164,   -1.313166e+02,   -1.381818e+02,   -1.894093e+02
    7165,   -1.459595e+02,   -1.381818e+02,   -1.749541e+02
    7166,   -1.190475e+02,   -1.381818e+02,   -1.788487e+02
    7167,   -1.162877e+02,   -1.309091e+02,   -1.900174e+02
    7168,   -1.463455e+02,   -1.309091e+02,   -1.888011e+02
    7169,   -1.015759e+02,   -1.381818e+02,   -1.868157e+02
    7170,   -9.538850e+01,   -1.381818e+02,   -1.679052e+02
    7171,   -8.686404e+01,   -1.309091e+02,   -1.836139e+02
    7172,   -1.617266e+02,   -1.381818e+02,   -1.573710e+02
    7173,   -1.761528e+02,   -1.381818e+02,   -1.373024e+02
    7174,   -1.778796e+02,   -1.309091e+02,   -1.536348e+02
    7175,   -1.139170e+02,   -1.381818e+02,   -2.045013e+02
    7176,   -1.282226e+02,   -1.381818e+02,   -2.189318e+02
    7177,   -1.456222e+02,   -1.381818e+02,   -2.038398e+02
    7178,   -1.115463e+02,   -1.309091e+02,   -2.189851e+02
    7179,   -1.448988e+02,   -1.309091e+02,   -2.188785e+02
    7180,   -8.193082e+01,   -1.381818e+02,   -2.002402e+02
    7181,   -9.427196e+01,   -1.381818e+02,   -2.179258e+02
    7182,   -7.699760e+01,   -1.309091e+02,   -2.168664e+02
    7183,   -1.630931e+02,   -1.381818e+02,   -1.869848e+02
    7184,   -1.788601e+02,   -1.381818e+02,   -1.694017e+02
    7185,   -1.798407e+02,   -1.309091e+02,   -1.851685e+02
    7186,   -1.797594e+02,   -1.381818e+02,   -2.013299e+02
    7187,   -1.622885e+02,   -1.381818e+02,   -2.181849e+02
    7188,   -1.796782e+02,   -1.309091e+02,   -2.174912e+02
    7189,   -1.926930e+02,   -1.381818e+02,   -1.167485e+02
    7190,   -2.116106e+02,   -1.381818e+02,   -9.451805e+01
    7191,   -1.933008e+02,   -1.381818e+02,   -8.050288e+01
    7192,   -2.109599e+02,   -1.309091e+02,   -1.125271e+02
    7193,   -2.122614e+02,   -1.309091e+02,   -7.650898e+01
    7194,   -2.121769e+02,   -1.381818e+02,   -1.299698e+02
    7195,   -1.956368e+02,   -1.381818e+02,   -1.505237e+02
    7196,   -2.133939e+02,   -1.309091e+02,   -1.474125e+02
    7197,   -2.140493e+02,   -1.381818e+02,   -1.645611e+02
    7198,   -1.972727e+02,   -1.381818e+02,   -1.834391e+02
    7199,   -2.147047e+02,   -1.309091e+02,   -1.817097e+02
    7200,   -2.147106e+02,   -1.381818e+02,   -1.988015e+02
    7201,   -1.971974e+02,   -1.381818e+02,   -2.166923e+02
    7202,   -2.147166e+02,   -1.309091e+02,   -2.158933e+02
    7203,   -4.350801e+01,   -1.381818e+02,   -1.975712e+02
    7204,   -5.826173e+01,   -1.381818e+02,   -2.163640e+02
    7205,   -6.717709e+01,   -1.381818e+02,   -1.814474e+02
    7206,   -4.749014e+01,   -1.309091e+02,   -1.792809e+02
    7207,   -3.952587e+01,   -1.309091e+02,   -2.158615e+02
    7208,   -6.104863e+01,   -1.381818e+02,   -1.553810e+02
    7209,   -1.963485e+02,   -1.381818e+02,   -4.096756e+01
    7210,   -2.133144e+02,   -1.381818e+02,   -5.756295e+01
    7211,   -2.143675e+02,   -1.309091e+02,   -3.861692e+01
    7212,   -2.321838e+02,   -1.381818e+02,   -3.716560e+01
    7213,   -2.311307e+02,   -1.381818e+02,   -7.396878e+01
    7214,   -2.304800e+02,   -1.381818e+02,   -1.098350e+02
    7215,   -2.316970e+02,   -1.381818e+02,   -1.451348e+02
    7216,   -2.323523e+02,   -1.381818e+02,   -1.801406e+02
    7217,   -2.323583e+02,   -1.381818e+02,   -2.150895e+02
    7218,   -2.145012e+02,   -1.381818e+02,   -2.329466e+02
    7219,   -1.791248e+02,   -1.381818e+02,   -2.337456e+02
    7220,   -1.438780e+02,   -1.381818e+02,   -2.344392e+02
    7221,   -1.093446e+02,   -1.381818e+02,   -2.344925e+02
    7222,   -7.421308e+01,   -1.381818e+02,   -2.334332e+02
    7223,   -3.762008e+01,   -1.381818e+02,   -2.329307e+02
    7224,   -2.159338e+02,   -1.381818e+02,   -1.930846e+01
    7225,   -1.976293e+01,   -1.381818e+02,   -2.166807e+02
    7226,   -2.374507e+01,   -1.381818e+02,   -1.821404e+02
    7227,   -3.730356e+01,   -1.381818e+02,   -1.419906e+02
    7228,   -1.032531e+02,   -1.527273e+02,   -1.152129e+02
    7229,   -8.926004e+01,   -1.527273e+02,   -1.418388e+02
    7230,   -1.208787e+02,   -1.527273e+02,   -1.428428e+02
    7231,   -1.348718e+02,   -1.527273e+02,   -1.162168e+02
    7232,   -1.318990e+02,   -1.454545e+02,   -9.894454e+01
    7233,   -7.460712e+01,   -1.454545e+02,   -1.314812e+02
    7234,   -1.039130e+02,   -1.454545e+02,   -1.521965e+02
    7235,   -1.378445e+02,   -1.454545e+02,   -1.334891e+02
    7236,   -1.121744e+02,   -1.527273e+02,   -6.905501e+01
    7237,   -7.972997e+01,   -1.527273e+02,   -1.081670e+02
    7238,   -1.356975e+02,   -1.527273e+02,   -7.610088e+01
    7239,   -1.394960e+02,   -1.454545e+02,   -5.325721e+01
    7240,   -1.589127e+02,   -1.527273e+02,   -4.828771e+01
    7241,   -1.531196e+02,   -1.527273e+02,   -9.172066e+01
    7242,   -1.763348e+02,   -1.527273e+02,   -6.390749e+01
    7243,   -1.783295e+02,   -1.454545e+02,   -4.331821e+01
    7244,   -1.743402e+02,   -1.454545e+02,   -8.449678e+01
    7245,   -1.561353e+02,   -1.527273e+02,   -1.272295e+02
    7246,   -1.743831e+02,   -1.527273e+02,   -1.027333e+02
    7247,   -1.744260e+02,   -1.454545e+02,   -1.209699e+02
    7248,   -1.128601e+02,   -1.527273e+02,   -1.599382e+02
    7249,   -1.336904e+02,   -1.527273e+02,   -1.643935e+02
    7250,   -1.417090e+02,   -1.527273e+02,   -1.472981e+02
    7251,   -1.218073e+02,   -1.454545e+02,   -1.676800e+02
    7252,   -1.455735e+02,   -1.454545e+02,   -1.611071e+02
    7253,   -1.816647e+02,   -1.527273e+02,   -2.165910e+01
    7254,   -1.459980e+02,   -1.527273e+02,   -2.662861e+01
    7255,   -1.313166e+02,   -1.527273e+02,   -1.894093e+02
    7256,   -1.459595e+02,   -1.527273e+02,   -1.749541e+02
    7257,   -1.190475e+02,   -1.527273e+02,   -1.788487e+02
    7258,   -1.162877e+02,   -1.454545e+02,   -1.900174e+02
    7259,   -1.463455e+02,   -1.454545e+02,   -1.888011e+02
    7260,   -1.015759e+02,   -1.527273e+02,   -1.868157e+02
    7261,   -9.538850e+01,   -1.527273e+02,   -1.679052e+02
    7262,   -8.686404e+01,   -1.454545e+02,   -1.836139e+02
    7263,   -1.617266e+02,   -1.527273e+02,   -1.573710e+02
    7264,   -1.761528e+02,   -1.527273e+02,   -1.373024e+02
    7265,   -1.778796e+02,   -1.454545e+02,   -1.536348e+02
    7266,   -1.139170e+02,   -1.527273e+02,   -2.045013e+02
    7267,   -1.282226e+02,   -1.527273e+02,   -2.189318e+02
    7268,   -1.456222e+02,   -1.527273e+02,   -2.038398e+02
    7269,   -1.115463e+02,   -1.454545e+02,   -2.189851e+02
    7270,   -1.448988e+02,   -1.454545e+02,   -2.188785e+02
    7271,   -8.193082e+01,   -1.527273e+02,   -2.002402e+02
    7272,   -9.427196e+01,   -1.527273e+02,   -2.179258e+02
    7273,   -7.699760e+01,   -1.454545e+02,   -2.168664e+02
    7274,   -1.630931e+02,   -1.527273e+02,   -1.869848e+02
    7275,   -1.788601e+02,   -1.527273e+02,   -1.694017e+02
    7276,   -1.798407e+02,   -1.454545e+02,   -1.851685e+02
    7277,   -1.797594e+02,   -1.527273e+02,   -2.013299e+02
    7278,   -1.622885e+02,   -1.527273e+02,   -2.181849e+02
    7279,   -1.796782e+02,   -1.454545e+02,   -2.174912e+02
    7280,   -1.926930e+02,   -1.527273e+02,   -1.167485e+02
    7281,   -2.116106e+02,   -1.527273e+02,   -9.451805e+01
    7282,   -1.933008e+02,   -1.527273e+02,   -8.050288e+01
    7283,   -2.109599e+02,   -1.454545e+02,   -1.125271e+02
    7284,   -2.122614e+02,   -1.454545e+02,   -7.650898e+01
    7285,   -2.121769e+02,   -1.527273e+02,   -1.299698e+02
    7286,   -1.956368e+02,   -1.527273e+02,   -1.505237e+02
    7287,   -2.133939e+02,   -1.454545e+02,   -1.474125e+02
    7288,   -2.140493e+02,   -1.527273e+02,   -1.645611e+02
    7289,   -1.972727e+02,   -1.527273e+02,   -1.834391e+02
    7290,   -2.147047e+02,   -1.454545e+02,   -1.817097e+02
    7291,   -2.147106e+02,   -1.527273e+02,   -1.988015e+02
    7292,   -1.971974e+02,   -1.527273e+02,   -2.166923e+02
    7293,   -2.147166e+02,   -1.454545e+02,   -2.158933e+02
    7294,   -4.350801e+01,   -1.527273e+02,   -1.975712e+02
    7295,   -5.826173e+01,   -1.527273e+02,   -2.163640e+02
    7296,   -6.717709e+01,   -1.527273e+02,   -1.814474e+02
    7297,   -4.749014e+01,   -1.454545e+02,   -1.792809e+02
    7298,   -3.952587e+01,   -1.454545e+02,   -2.158615e+02
    7299,   -6.104863e+01,   -1.527273e+02,   -1.553810e+02
    7300,   -1.963485e+02,   -1.527273e+02,   -4.096756e+01
    7301,   -2.133144e+02,   -1.527273e+02,   -5.756295e+01
    7302,   -2.143675e+02,   -1.454545e+02,   -3.861692e+01
    7303,   -2.321838e+02,   -1.527273e+02,   -3.716560e+01
    7304,   -2.311307e+02,   -1.527273e+02,   -7.396878e+01
    7305,   -2.304800e+02,   -1.527273e+02,   -1.098350e+02
    7306,   -2.316970e+02,   -1.527273e+02,   -1.451348e+02
    7307,   -2.323523e+02,   -1.527273e+02,   -1.801406e+02
    7308,   -2.323583e+02,   -1.527273e+02,   -2.150895e+02
    7309,   -2.145012e+02,   -1.527273e+02,   -2.329466e+02
    7310,   -1.791248e+02,   -1.527273e+02,   -2.337456e+02
    7311,   -1.438780e+02,   -1.527273e+02,   -2.344392e+02
    7312,   -1.093446e+02,   -1.527273e+02,   -2.344925e+02
    7313,   -7.421308e+01,   -1.527273e+02,   -2.334332e+02
    7314,   -3.762008e+01,   -1.527273e+02,   -2.329307e+02
    7315,   -2.159338e+02,   -1.527273e+02,   -1.930846e+01
    7316,   -1.976293e+01,   -1.527273e+02,   -2.166807e+02
    7317,   -2.374507e+01,   -1.527273e+02,   -1.821404e+02
    7318,   -3.730356e+01,   -1.527273e+02,   -1.419906e+02
    7319,   -1.032531e+02,   -1.672727e+02,   -1.152129e+02
    7320,   -8.926004e+01,   -1.672727e+02,   -1.418388e+02
    7321,   -1.208787e+02,   -1.672727e+02,   -1.428428e+02
    7322,   -1.348718e+02,   -1.672727e+02,   -1.162168e+02
    7323,   -1.318990e+02,   -1.600000e+02,   -9.894454e+01
    7324,   -7.460712e+01,   -1.600000e+02,   -1.314812e+02
    7325,   -1.039130e+02,   -1.600000e+02,   -1.521965e+02
    7326,   -1.378445e+02,   -1.600000e+02,   -1.334891e+02
    7327,   -1.121744e+02,   -1.672727e+02,   -6.905501e+01
    7328,   -7.972997e+01,   -1.672727e+02,   -1.081670e+02
    7329,   -1.356975e+02,   -1.672727e+02,   -7.610088e+01
    7330,   -1.394960e+02,   -1.600000e+02,   -5.325721e+01
    7331,   -1.589127e+02,   -1.672727e+02,   -4.828771e+01
    7332,   -1.531196e+02,   -1.672727e+02,   -9.172066e+01
    7333,   -1.763348e+02,   -1.672727e+02,   -6.390749e+01
    7334,   -1.783295e+02,   -1.600000e+02,   -4.331821e+01
    7335,   -1.743402e+02,   -1.600000e+02,   -8.449678e+01
    7336,   -1.561353e+02,   -1.672727e+02,   -1.272295e+02
    7337,   -1.743831e+02,   -1.672727e+02,   -1.027333e+02
    7338,   -1.744260e+02,   -1.600000e+02,   -1.209699e+02
    7339,   -1.128601e+02,   -1.672727e+02,   -1.599382e+02
    7340,   -1.336904e+02,   -1.672727e+02,   -1.643935e+02
    7341,   -1.417090e+02,   -1.672727e+02,   -1.472981e+02
    7342,   -1.218073e+02,   -1.600000e+02,   -1.676800e+02
    7343,   -1.455735e+02,   -1.600000e+02,   -1.611071e+02
    7344,   -1.816647e+02,   -1.672727e+02,   -2.165910e+01
    7345,   -1.459980e+02,   -1.672727e+02,   -2.662861e+01
    7346,   -1.313166e+02,   -1.672727e+02,   -1.894093e+02
    7347,   -1.459595e+02,   -1.672727e+02,   -1.749541e+02
    7348,   -1.190475e+02,   -1.672727e+02,   -1.788487e+02
    7349,   -1.162877e+02,   -1.600000e+02,   -1.900174e+02
    7350,   -1.463455e+02,   -1.600000e+02,   -1.888011e+02
    7351,   -1.015759e+02,   -1.672727e+02,   -1.868157e+02
    7352,   -9.538850e+01,   -1.672727e+02,   -1.679052e+02
    7353,   -8.686404e+01,   -1.600000e+02,   -1.836139e+02
    7354,   -1.617266e+02,   -1.672727e+02,   -1.573710e+02
    7355,   -1.761528e+02,   -1.672727e+02,   -1.373024e+02
    7356,   -1.778796e+02,   -1.600000e+02,   -1.536348e+02
    7357,   -1.139170e+02,   -1.672727e+02,   -2.045013e+02
    7358,   -1.282226e+02,   -1.672727e+02,   -2.189318e+02
    7359,   -1.456222e+02,   -1.672727e+02,   -2.038398e+02
    7360,   -1.115463e+02,   -1.600000e+02,   -2.189851e+02
    7361,   -1.448988e+02,   -1.600000e+02,   -2.188785e+02
    7362,   -8.193082e+01,   -1.672727e+02,   -2.002402e+02
    7363,   -9.427196e+01,   -1.672727e+02,   -2.179258e+02
    7364,   -7.699760e+01,   -1.600000e+02,   -2.168664e+02
    7365,   -1.630931e+02,   -1.672727e+02,   -1.869848e+02
    7366,   -1.788601e+02,   -1.672727e+02,   -1.694017e+02
    7367,   -1.798407e+02,   -1.600000e+02,   -1.851685e+02
    7368,   -1.797594e+02,   -1.672727e+02,   -2.013299e+02
    7369,   -1.622885e+02,   -1.672727e+02,   -2.181849e+02
    7370,   -1.796782e+02,   -1.600000e+02,   -2.174912e+02
    7371,   -1.926930e+02,   -1.672727e+02,   -1.167485e+02
    7372,   -2.116106e+02,   -1.672727e+02,   -9.451805e+01
    7373,   -1.933008e+02,   -1.672727e+02,   -8.050288e+01
    7374,   -2.109599e+02,   -1.600000e+02,   -1.125271e+02
    7375,   -2.122614e+02,   -1.600000e+02,   -7.650898e+01
    7376,   -2.121769e+02,   -1.672727e+02,   -1.299698e+02
    7377,   -1.956368e+02,   -1.672727e+02,   -1.505237e+02
    7378,   -2.133939e+02,   -1.600000e+02,   -1.474125e+02
    7379,   -2.140493e+02,   -1.672727e+02,   -1.645611e+02
    7380,   -1.972727e+02,   -1.672727e+02,   -1.834391e+02
    7381,   -2.147047e+02,   -1.600000e+02,   -1.817097e+02
    7382,   -2.147106e+02,   -1.672727e+02,   -1.988015e+02
    7383,   -1.971974e+02,   -1.672727e+02,   -2.166923e+02
    7384,   -2.147166e+02,   -1.600000e+02,   -2.158933e+02
    7385,   -4.350801e+01,   -1.672727e+02,   -1.975712e+02
    7386,   -5.826173e+01,   -1.672727e+02,   -2.163640e+02
    7387,   -6.717709e+01,   -1.672727e+02,   -1.814474e+02
    7388,   -4.749014e+01,   -1.600000e+02,   -1.792809e+02
    7389,   -3.952587e+01,   -1.600000e+02,   -2.158615e+02
    7390,   -6.104863e+01,   -1.672727e+02,   -1.553810e+02
    7391,   -1.963485e+02,   -1.672727e+02,   -4.096756e+01
    7392,   -2.133144e+02,   -1.672727e+02,   -5.756295e+01
    7393,   -2.143675e+02,   -1.600000e+02,   -3.861692e+01
    7394,   -2.321838e+02,   -1.672727e+02,   -3.716560e+01
    7395,   -2.311307e+02,   -1.672727e+02,   -7.396878e+01
    7396,   -2.304800e+02,   -1.672727e+02,   -1.098350e+02
    7397,   -2.316970e+02,   -1.672727e+02,   -1.451348e+02
    7398,   -2.323523e+02,   -1.672727e+02,   -1.801406e+02
    7399,   -2.323583e+02,   -1.672727e+02,   -2.150895e+02
    7400,   -2.145012e+02,   -1.672727e+02,   -2.329466e+02
    7401,   -1.791248e+02,   -1.672727e+02,   -2.337456e+02
    7402,   -1.438780e+02,   -1.672727e+02,   -2.344392e+02
    7403,   -1.093446e+02,   -1.672727e+02,   -2.344925e+02
    7404,   -7.421308e+01,   -1.672727e+02,   -2.334332e+02
    7405,   -3.762008e+01,   -1.672727e+02,   -2.329307e+02
    7406,   -2.159338e+02,   -1.672727e+02,   -1.930846e+01
    7407,   -1.976293e+01,   -1.672727e+02,   -2.166807e+02
    7408,   -2.374507e+01,   -1.672727e+02,   -1.821404e+02
    7409,   -3.730356e+01,   -1.672727e+02,   -1.419906e+02
    7410,   -1.032531e+02,   -1.818182e+02,   -1.152129e+02
    7411,   -8.926004e+01,   -1.818182e+02,   -1.418388e+02
    7412,   -1.208787e+02,   -1.818182e+02,   -1.428428e+02
    7413,   -1.348718e+02,   -1.818182e+02,   -1.162168e+02
    7414,   -1.318990e+02,   -1.745455e+02,   -9.894454e+01
    7415,   -7.460712e+01,   -1.745455e+02,   -1.314812e+02
    7416,   -1.039130e+02,   -1.745455e+02,   -1.521965e+02
    7417,   -1.378445e+02,   -1.745455e+02,   -1.334891e+02
    7418,   -1.121744e+02,   -1.818182e+02,   -6.905501e+01
    7419,   -7.972997e+01,   -1.818182e+02,   -1.081670e+02
    7420,   -1.356975e+02,   -1.818182e+02,   -7.610088e+01
    7421,   -1.394960e+02,   -1.745455e+02,   -5.325721e+01
    7422,   -1.589127e+02,   -1.818182e+02,   -4.828771e+01
    7423,   -1.531196e+02,   -1.818182e+02,   -9.172066e+01
    7424,   -1.763348e+02,   -1.818182e+02,   -6.390749e+01
    7425,   -1.783295e+02,   -1.745455e+02,   -4.331821e+01
    7426,   -1.743402e+02,   -1.745455e+02,   -8.449678e+01
    7427,   -1.561353e+02,   -1.818182e+02,   -1.272295e+02
    7428,   -1.743831e+02,   -1.818182e+02,   -1.027333e+02
    7429,   -1.744260e+02,   -1.745455e+02,   -1.209699e+02
    7430,   -1.128601e+02,   -1.818182e+02,   -1.599382e+02
    7431,   -1.336904e+02,   -1.818182e+02,   -1.643935e+02
    7432,   -1.417090e+02,   -1.818182e+02,   -1.472981e+02
    7433,   -1.218073e+02,   -1.745455e+02,   -1.676800e+02
    7434,   -1.455735e+02,   -1.745455e+02,   -1.611071e+02
    7435,   -1.816647e+02,   -1.818182e+02,   -2.165910e+01
    7436,   -1.459980e+02,   -1.818182e+02,   -2.662861e+01
    7437,   -1.313166e+02,   -1.818182e+02,   -1.894093e+02
    7438,   -1.459595e+02,   -1.818182e+02,   -1.749541e+02
    7439,   -1.190475e+02,   -1.818182e+02,   -1.788487e+02
    7440,   -1.162877e+02,   -1.745455e+02,   -1.900174e+02
    7441,   -1.463455e+02,   -1.745455e+02,   -1.888011e+02
    7442,   -1.015759e+02,   -1.818182e+02,   -1.868157e+02
    7443,   -9.538850e+01,   -1.818182e+02,   -1.679052e+02
    7444,   -8.686404e+01,   -1.745455e+02,   -1.836139e+02
    7445,   -1.617266e+02,   -1.818182e+02,   -1.573710e+02
    7446,   -1.761528e+02,   -1.818182e+02,   -1.373024e+02
    7447,   -1.778796e+02,   -1.745455e+02,   -1.536348e+02
    7448,   -1.139170e+02,   -1.818182e+02,   -2.045013e+02
    7449,   -1.282226e+02,   -1.818182e+02,   -2.189318e+02
    7450,   -1.456222e+02,   -1.818182e+02,   -2.038398e+02
    7451,   -1.115463e+02,   -1.745455e+02,   -2.189851e+02
    7452,   -1.448988e+02,   -1.745455e+02,   -2.188785e+02
    7453,   -8.193082e+01,   -1.818182e+02,   -2.002402e+02
    7454,   -9.427196e+01,   -1.818182e+02,   -2.179258e+02
    7455,   -7.699760e+01,   -1.745455e+02,   -2.168664e+02
    7456,   -1.630931e+02,   -1.818182e+02,   -1.869848e+02
    7457,   -1.788601e+02,   -1.818182e+02,   -1.694017e+02
    7458,   -1.798407e+02,   -1.745455e+02,   -1.851685e+02
    7459,   -1.797594e+02,   -1.818182e+02,   -2.013299e+02
    7460,   -1.622885e+02,   -1.818182e+02,   -2.181849e+02
    7461,   -1.796782e+02,   -1.745455e+02,   -2.174912e+02
    7462,   -1.926930e+02,   -1.818182e+02,   -1.167485e+02
    7463,   -2.116106e+02,   -1.818182e+02,   -9.451805e+01
    7464,   -1.933008e+02,   -1.818182e+02,   -8.050288e+01
    7465,   -2.109599e+02,   -1.745455e+02,   -1.125271e+02
    7466,   -2.122614e+02,   -1.745455e+02,   -7.650898e+01
    7467,   -2.121769e+02,   -1.818182e+02,   -1.299698e+02
    7468,   -1.956368e+02,   -1.818182e+02,   -1.505237e+02
    7469,   -2.133939e+02,   -1.745455e+02,   -1.474125e+02
    7470,   -2.140493e+02,   -1.818182e+02,   -1.645611e+02
    7471,   -1.972727e+02,   -1.818182e+02,   -1.834391e+02
    7472,   -2.147047e+02,   -1.745455e+02,   -1.817097e+02
    7473,   -2.147106e+02,   -1.818182e+02,   -1.988015e+02
    7474,   -1.971974e+02,   -1.818182e+02,   -2.166923e+02
    7475,   -2.147166e+02,   -1.745455e+02,   -2.158933e+02
    7476,   -4.350801e+01,   -1.818182e+02,   -1.975712e+02
    7477,   -5.826173e+01,   -1.818182e+02,   -2.163640e+02
    7478,   -6.717709e+01,   -1.818182e+02,   -1.814474e+02
    7479,   -4.749014e+01,   -1.745455e+02,   -1.792809e+02
    7480,   -3.952587e+01,   -1.745455e+02,   -2.158615e+02
    7481,   -6.104863e+01,   -1.818182e+02,   -1.553810e+02
    7482,   -1.963485e+02,   -1.818182e+02,   -4.096756e+01
    7483,   -2.133144e+02,   -1.818182e+02,   -5.756295e+01
    7484,   -2.143675e+02,   -1.745455e+02,   -3.861692e+01
    7485,   -2.321838e+02,   -1.818182e+02,   -3.716560e+01
    7486,   -2.311307e+02,   -1.818182e+02,   -7.396878e+01
    7487,   -2.304800e+02,   -1.818182e+02,   -1.098350e+02
    7488,   -2.316970e+02,   -1.818182e+02,   -1.451348e+02
    7489,   -2.323523e+02,   -1.818182e+02,   -1.801406e+02
    7490,   -2.323583e+02,   -1.818182e+02,   -2.150895e+02
    7491,   -2.145012e+02,   -1.818182e+02,   -2.329466e+02
    7492,   -1.791248e+02,   -1.818182e+02,   -2.337456e+02
    7493,   -1.438780e+02,   -1.818182e+02,   -2.344392e+02
    7494,   -1.093446e+02,   -1.818182e+02,   -2.344925e+02
    7495,   -7.421308e+01,   -1.818182e+02,   -2.334332e+02
    7496,   -3.762008e+01,   -1.818182e+02,   -2.329307e+02
    7497,   -2.159338e+02,   -1.818182e+02,   -1.930846e+01
    7498,   -1.976293e+01,   -1.818182e+02,   -2.166807e+02
    7499,   -2.374507e+01,   -1.818182e+02,   -1.821404e+02
    7500,   -3.730356e+01,   -1.818182e+02,   -1.419906e+02
    7501,   -1.032531e+02,   -1.963636e+02,   -1.152129e+02
    7502,   -8.926004e+01,   -1.963636e+02,   -1.418388e+02
    7503,   -1.208787e+02,   -1.963636e+02,   -1.428428e+02
    7504,   -1.348718e+02,   -1.963636e+02,   -1.162168e+02
    7505,   -1.318990e+02,   -1.890909e+02,   -9.894454e+01
    7506,   -7.460712e+01,   -1.890909e+02,   -1.314812e+02
    7507,   -1.039130e+02,   -1.890909e+02,   -1.521965e+02
    7508,   -1.378445e+02,   -1.890909e+02,   -1.334891e+02
    7509,   -1.121744e+02,   -1.963636e+02,   -6.905501e+01
    7510,   -7.972997e+01,   -1.963636e+02,   -1.081670e+02
    7511,   -1.356975e+02,   -1.963636e+02,   -7.610088e+01
    7512,   -1.394960e+02,   -1.890909e+02,   -5.325721e+01
    7513,   -1.589127e+02,   -1.963636e+02,   -4.828771e+01
    7514,   -1.531196e+02,   -1.963636e+02,   -9.172066e+01
    7515,   -1.763348e+02,   -1.963636e+02,   -6.390749e+01
    7516,   -1.783295e+02,   -1.890909e+02,   -4.331821e+01
    7517,   -1.743402e+02,   -1.890909e+02,   -8.449678e+01
    7518,   -1.561353e+02,   -1.963636e+02,   -1.272295e+02
    7519,   -1.743831e+02,   -1.963636e+02,   -1.027333e+02
    7520,   -1.744260e+02,   -1.890909e+02,   -1.209699e+02
    7521,   -1.128601e+02,   -1.963636e+02,   -1.599382e+02
    7522,   -1.336904e+02,   -1.963636e+02,   -1.643935e+02
    7523,   -1.417090e+02,   -1.963636e+02,   -1.472981e+02
    7524,   -1.218073e+02,   -1.890909e+02,   -1.676800e+02
    7525,   -1.455735e+02,   -1.890909e+02,   -1.611071e+02
    7526,   -1.816647e+02,   -1.963636e+02,   -2.165910e+01
    7527,   -1.459980e+02,   -1.963636e+02,   -2.662861e+01
    7528,   -1.313166e+02,   -1.963636e+02,   -1.894093e+02
    7529,   -1.459595e+02,   -1.963636e+02,   -1.749541e+02
    7530,   -1.190475e+02,   -1.963636e+02,   -1.788487e+02
    7531,   -1.162877e+02,   -1.890909e+02,   -1.900174e+02
    7532,   -1.463455e+02,   -1.890909e+02,   -1.888011e+02
    7533,   -1.015759e+02,   -1.963636e+02,   -1.868157e+02
    7534,   -9.538850e+01,   -1.963636e+02,   -1.679052e+02
    7535,   -8.686404e+01,   -1.890909e+02,   -1.836139e+02
    7536,   -1.617266e+02,   -1.963636e+02,   -1.573710e+02
    7537,   -1.761528e+02,   -1.963636e+02,   -1.373024e+02
    7538,   -1.778796e+02,   -1.890909e+02,   -1.536348e+02
    7539,   -1.139170e+02,   -1.963636e+02,   -2.045013e+02
    7540,   -1.282226e+02,   -1.963636e+02,   -2.189318e+02
    7541,   -1.456222e+02,   -1.963636e+02,   -2.038398e+02
    7542,   -1.115463e+02,   -1.890909e+02,   -2.189851e+02
    7543,   -1.448988e+02,   -1.890909e+02,   -2.188785e+02
    7544,   -8.193082e+01,   -1.963636e+02,   -2.002402e+02
    7545,   -9.427196e+01,   -1.963636e+02,   -2.179258e+02
    7546,   -7.699760e+01,   -1.890909e+02,   -2.168664e+02
    7547,   -1.630931e+02,   -1.963636e+02,   -1.869848e+02
    7548,   -1.788601e+02,   -1.963636e+02,   -1.694017e+02
    7549,   -1.798407e+02,   -1.890909e+02,   -1.851685e+02
    7550,   -1.797594e+02,   -1.963636e+02,   -2.013299e+02
    7551,   -1.622885e+02,   -1.963636e+02,   -2.181849e+02
    7552,   -1.796782e+02,   -1.890909e+02,   -2.174912e+02
    7553,   -1.926930e+02,   -1.963636e+02,   -1.167485e+02
    7554,   -2.116106e+02,   -1.963636e+02,   -9.451805e+01
    7555,   -1.933008e+02,   -1.963636e+02,   -8.050288e+01
    7556,   -2.109599e+02,   -1.890909e+02,   -1.125271e+02
    7557,   -2.122614e+02,   -1.890909e+02,   -7.650898e+01
    7558,   -2.121769e+02,   -1.963636e+02,   -1.299698e+02
    7559,   -1.956368e+02,   -1.963636e+02,   -1.505237e+02
    7560,   -2.133939e+02,   -1.890909e+02,   -1.474125e+02
    7561,   -2.140493e+02,   -1.963636e+02,   -1.645611e+02
    7562,   -1.972727e+02,   -1.963636e+02,   -1.834391e+02
    7563,   -2.147047e+02,   -1.890909e+02,   -1.817097e+02
    7564,   -2.147106e+02,   -1.963636e+02,   -1.988015e+02
    7565,   -1.971974e+02,   -1.963636e+02,   -2.166923e+02
    7566,   -2.147166e+02,   -1.890909e+02,   -2.158933e+02
    7567,   -4.350801e+01,   -1.963636e+02,   -1.975712e+02
    7568,   -5.826173e+01,   -1.963636e+02,   -2.163640e+02
    7569,   -6.717709e+01,   -1.963636e+02,   -1.814474e+02
    7570,   -4.749014e+01,   -1.890909e+02,   -1.792809e+02
    7571,   -3.952587e+01,   -1.890909e+02,   -2.158615e+02
    7572,   -6.104863e+01,   -1.963636e+02,   -1.553810e+02
    7573,   -1.963485e+02,   -1.963636e+02,   -4.096756e+01
    7574,   -2.133144e+02,   -1.963636e+02,   -5.756295e+01
    7575,   -2.143675e+02,   -1.890909e+02,   -3.861692e+01
    7576,   -2.321838e+02,   -1.963636e+02,   -3.716560e+01
    7577,   -2.311307e+02,   -1.963636e+02,   -7.396878e+01
    7578,   -2.304800e+02,   -1.963636e+02,   -1.098350e+02
    7579,   -2.316970e+02,   -1.963636e+02,   -1.451348e+02
    7580,   -2.323523e+02,   -1.963636e+02,   -1.801406e+02
    7581,   -2.323583e+02,   -1.963636e+02,   -2.150895e+02
    7582,   -2.145012e+02,   -1.963636e+02,   -2.329466e+02
    7583,   -1.791248e+02,   -1.963636e+02,   -2.337456e+02
    7584,   -1.438780e+02,   -1.963636e+02,   -2.344392e+02
    7585,   -1.093446e+02,   -1.963636e+02,   -2.344925e+02
    7586,   -7.421308e+01,   -1.963636e+02,   -2.334332e+02
    7587,   -3.762008e+01,   -1.963636e+02,   -2.329307e+02
    7588,   -2.159338e+02,   -1.963636e+02,   -1.930846e+01
    7589,   -1.976293e+01,   -1.963636e+02,   -2.166807e+02
    7590,   -2.374507e+01,   -1.963636e+02,   -1.821404e+02
    7591,   -3.730356e+01,   -1.963636e+02,   -1.419906e+02
    7592,   -1.032531e+02,   -2.109091e+02,   -1.152129e+02
    7593,   -8.926004e+01,   -2.109091e+02,   -1.418388e+02
    7594,   -1.208787e+02,   -2.109091e+02,   -1.428428e+02
    7595,   -1.348718e+02,   -2.109091e+02,   -1.162168e+02
    7596,   -1.318990e+02,   -2.036364e+02,   -9.894454e+01
    7597,   -7.460712e+01,   -2.036364e+02,   -1.314812e+02
    7598,   -1.039130e+02,   -2.036364e+02,   -1.521965e+02
    7599,   -1.378445e+02,   -2.036364e+02,   -1.334891e+02
    7600,   -1.121744e+02,   -2.109091e+02,   -6.905501e+01
    7601,   -7.972997e+01,   -2.109091e+02,   -1.081670e+02
    7602,   -1.356975e+02,   -2.109091e+02,   -7.610088e+01
    7603,   -1.394960e+02,   -2.036364e+02,   -5.325721e+01
    7604,   -1.589127e+02,   -2.109091e+02,   -4.828771e+01
    7605,   -1.531196e+02,   -2.109091e+02,   -9.172066e+01
    7606,   -1.763348e+02,   -2.109091e+02,   -6.390749e+01
    7607,   -1.783295e+02,   -2.036364e+02,   -4.331821e+01
    7608,   -1.743402e+02,   -2.036364e+02,   -8.449678e+01
    7609,   -1.561353e+02,   -2.109091e+02,   -1.272295e+02
    7610,   -1.743831e+02,   -2.109091e+02,   -1.027333e+02
    7611,   -1.744260e+02,   -2.036364e+02,   -1.209699e+02
    7612,   -1.128601e+02,   -2.109091e+02,   -1.599382e+02
    7613,   -1.336904e+02,   -2.109091e+02,   -1.643935e+02
    7614,   -1.417090e+02,   -2.109091e+02,   -1.472981e+02
    7615,   -1.218073e+02,   -2.036364e+02,   -1.676800e+02
    7616,   -1.455735e+02,   -2.036364e+02,   -1.611071e+02
    7617,   -1.816647e+02,   -2.109091e+02,   -2.165910e+01
    7618,   -1.459980e+02,   -2.109091e+02,   -2.662861e+01
    7619,   -1.313166e+02,   -2.109091e+02,   -1.894093e+02
    7620,   -1.459595e+02,   -2.109091e+02,   -1.749541e+02
    7621,   -1.190475e+02,   -2.109091e+02,   -1.788487e+02
    7622,   -1.162877e+02,   -2.036364e+02,   -1.900174e+02
    7623,   -1.463455e+02,   -2.036364e+02,   -1.888011e+02
    7624,   -1.015759e+02,   -2.109091e+02,   -1.868157e+02
    7625,   -9.538850e+01,   -2.109091e+02,   -1.679052e+02
    7626,   -8.686404e+01,   -2.036364e+02,   -1.836139e+02
    7627,   -1.617266e+02,   -2.109091e+02,   -1.573710e+02
    7628,   -1.761528e+02,   -2.109091e+02,   -1.373024e+02
    7629,   -1.778796e+02,   -2.036364e+02,   -1.536348e+02
    7630,   -1.139170e+02,   -2.109091e+02,   -2.045013e+02
    7631,   -1.282226e+02,   -2.109091e+02,   -2.189318e+02
    7632,   -1.456222e+02,   -2.109091e+02,   -2.038398e+02
    7633,   -1.115463e+02,   -2.036364e+02,   -2.189851e+02
    7634,   -1.448988e+02,   -2.036364e+02,   -2.188785e+02
    7635,   -8.193082e+01,   -2.109091e+02,   -2.002402e+02
    7636,   -9.427196e+01,   -2.109091e+02,   -2.179258e+02
    7637,   -7.699760e+01,   -2.036364e+02,   -2.168664e+02
    7638,   -1.630931e+02,   -2.109091e+02,   -1.869848e+02
    7639,   -1.788601e+02,   -2.109091e+02,   -1.694017e+02
    7640,   -1.798407e+02,   -2.036364e+02,   -1.851685e+02
    7641,   -1.797594e+02,   -2.109091e+02,   -2.013299e+02
    7642,   -1.622885e+02,   -2.109091e+02,   -2.181849e+02
    7643,   -1.796782e+02,   -2.036364e+02,   -2.174912e+02
    7644,   -1.926930e+02,   -2.109091e+02,   -1.167485e+02
    7645,   -2.116106e+02,   -2.109091e+02,   -9.451805e+01
    7646,   -1.933008e+02,   -2.109091e+02,   -8.050288e+01
    7647,   -2.109599e+02,   -2.036364e+02,   -1.125271e+02
    7648,   -2.122614e+02,   -2.036364e+02,   -7.650898e+01
    7649,   -2.121769e+02,   -2.109091e+02,   -1.299698e+02
    7650,   -1.956368e+02,   -2.109091e+02,   -1.505237e+02
    7651,   -2.133939e+02,   -2.036364e+02,   -1.474125e+02
    7652,   -2.140493e+02,   -2.109091e+02,   -1.645611e+02
    7653,   -1.972727e+02,   -2.109091e+02,   -1.834391e+02
    7654,   -2.147047e+02,   -2.036364e+02,   -1.817097e+02
    7655,   -2.147106e+02,   -2.109091e+02,   -1.988015e+02
    7656,   -1.971974e+02,   -2.109091e+02,   -2.166923e+02
    7657,   -2.147166e+02,   -2.036364e+02,   -2.158933e+02
    7658,   -4.350801e+01,   -2.109091e+02,   -1.975712e+02
    7659,   -5.826173e+01,   -2.109091e+02,   -2.163640e+02
    7660,   -6.717709e+01,   -2.109091e+02,   -1.814474e+02
    7661,   -4.749014e+01,   -2.036364e+02,   -1.792809e+02
    7662,   -3.952587e+01,   -2.036364e+02,   -2.158615e+02
    7663,   -6.104863e+01,   -2.109091e+02,   -1.553810e+02
    7664,   -1.963485e+02,   -2.109091e+02,   -4.096756e+01
    7665,   -2.133144e+02,   -2.109091e+02,   -5.756295e+01
    7666,   -2.143675e+02,   -2.036364e+02,   -3.861692e+01
    7667,   -2.321838e+02,   -2.109091e+02,   -3.716560e+01
    7668,   -2.311307e+02,   -2.109091e+02,   -7.396878e+01
    7669,   -2.304800e+02,   -2.109091e+02,   -1.098350e+02
    7670,   -2.316970e+02,   -2.109091e+02,   -1.451348e+02
    7671,   -2.323523e+02,   -2.109091e+02,   -1.801406e+02
    7672,   -2.323583e+02,   -2.109091e+02,   -2.150895e+02
    7673,   -2.145012e+02,   -2.109091e+02,   -2.329466e+02
    7674,   -1.791248e+02,   -2.109091e+02,   -2.337456e+02
    7675,   -1.438780e+02,   -2.109091e+02,   -2.344392e+02
    7676,   -1.093446e+02,   -2.109091e+02,   -2.344925e+02
    7677,   -7.421308e+01,   -2.109091e+02,   -2.334332e+02
    7678,   -3.762008e+01,   -2.109091e+02,   -2.329307e+02
    7679,   -2.159338e+02,   -2.109091e+02,   -1.930846e+01
    7680,   -1.976293e+01,   -2.109091e+02,   -2.166807e+02
    7681,   -2.374507e+01,   -2.109091e+02,   -1.821404e+02
    7682,   -3.730356e+01,   -2.109091e+02,   -1.419906e+02
    7683,   -1.032531e+02,   -2.254545e+02,   -1.152129e+02
    7684,   -8.926004e+01,   -2.254545e+02,   -1.418388e+02
    7685,   -1.208787e+02,   -2.254545e+02,   -1.428428e+02
    7686,   -1.348718e+02,   -2.254545e+02,   -1.162168e+02
    7687,   -1.318990e+02,   -2.181818e+02,   -9.894454e+01
    7688,   -7.460712e+01,   -2.181818e+02,   -1.314812e+02
    7689,   -1.039130e+02,   -2.181818e+02,   -1.521965e+02
    7690,   -1.378445e+02,   -2.181818e+02,   -1.334891e+02
    7691,   -1.121744e+02,   -2.254545e+02,   -6.905501e+01
    7692,   -7.972997e+01,   -2.254545e+02,   -1.081670e+02
    7693,   -1.356975e+02,   -2.254545e+02,   -7.610088e+01
    7694,   -1.394960e+02,   -2.181818e+02,   -5.325721e+01
    7695,   -1.589127e+02,   -2.254545e+02,   -4.828771e+01
    7696,   -1.531196e+02,   -2.254545e+02,   -9.172066e+01
    7697,   -1.763348e+02,   -2.254545e+02,   -6.390749e+01
    7698,   -1.783295e+02,   -2.181818e+02,   -4.331821e+01
    7699,   -1.743402e+02,   -2.181818e+02,   -8.449678e+01
    7700,   -1.561353e+02,   -2.254545e+02,   -1.272295e+02
    7701,   -1.743831e+02,   -2.254545e+02,   -1.027333e+02
    7702,   -1.744260e+02,   -2.181818e+02,   -1.209699e+02
    7703,   -1.128601e+02,   -2.254545e+02,   -1.599382e+02
    7704,   -1.336904e+02,   -2.254545e+02,   -1.643935e+02
    7705,   -1.417090e+02,   -2.254545e+02,   -1.472981e+02
    7706,   -1.218073e+02,   -2.181818e+02,   -1.676800e+02
    7707,   -1.455735e+02,   -2.181818e+02,   -1.611071e+02
    7708,   -1.816647e+02,   -2.254545e+02,   -2.165910e+01
    7709,   -1.459980e+02,   -2.254545e+02,   -2.662861e+01
    7710,   -1.313166e+02,   -2.254545e+02,   -1.894093e+02
    7711,   -1.459595e+02,   -2.254545e+02,   -1.749541e+02
    7712,   -1.190475e+02,   -2.254545e+02,   -1.788487e+02
    7713,   -1.162877e+02,   -2.181818e+02,   -1.900174e+02
    7714,   -1.463455e+02,   -2.181818e+02,   -1.888011e+02
    7715,   -1.015759e+02,   -2.254545e+02,   -1.868157e+02
    7716,   -9.538850e+01,   -2.254545e+02,   -1.679052e+02
    7717,   -8.686404e+01,   -2.181818e+02,   -1.836139e+02
    7718,   -1.617266e+02,   -2.254545e+02,   -1.573710e+02
    7719,   -1.761528e+02,   -2.254545e+02,   -1.373024e+02
    7720,   -1.778796e+02,   -2.181818e+02,   -1.536348e+02
    7721,   -1.139170e+02,   -2.254545e+02,   -2.045013e+02
    7722,   -1.282226e+02,   -2.254545e+02,   -2.189318e+02
    7723,   -1.456222e+02,   -2.254545e+02,   -2.038398e+02
    7724,   -1.115463e+02,   -2.181818e+02,   -2.189851e+02
    7725,   -1.448988e+02,   -2.181818e+02,   -2.188785e+02
    7726,   -8.193082e+01,   -2.254545e+02,   -2.002402e+02
    7727,   -9.427196e+01,   -2.254545e+02,   -2.179258e+02
    7728,   -7.699760e+01,   -2.181818e+02,   -2.168664e+02
    7729,   -1.630931e+02,   -2.254545e+02,   -1.869848e+02
    7730,   -1.788601e+02,   -2.254545e+02,   -1.694017e+02
    7731,   -1.798407e+02,   -2.181818e+02,   -1.851685e+02
    7732,   -1.797594e+02,   -2.254545e+02,   -2.013299e+02
    7733,   -1.622885e+02,   -2.254545e+02,   -2.181849e+02
    7734,   -1.796782e+02,   -2.181818e+02,   -2.174912e+02
    7735,   -1.926930e+02,   -2.254545e+02,   -1.167485e+02
    7736,   -2.116106e+02,   -2.254545e+02,   -9.451805e+01
    7737,   -1.933008e+02,   -2.254545e+02,   -8.050288e+01
    7738,   -2.109599e+02,   -2.181818e+02,   -1.125271e+02
    7739,   -2.122614e+02,   -2.181818e+02,   -7.650898e+01
    7740,   -2.121769e+02,   -2.254545e+02,   -1.299698e+02
    7741,   -1.956368e+02,   -2.254545e+02,   -1.505237e+02
    7742,   -2.133939e+02,   -2.181818e+02,   -1.474125e+02
    7743,   -2.140493e+02,   -2.254545e+02,   -1.645611e+02
    7744,   -1.972727e+02,   -2.254545e+02,   -1.834391e+02
    7745,   -2.147047e+02,   -2.181818e+02,   -1.817097e+02
    7746,   -2.147106e+02,   -2.254545e+02,   -1.988015e+02
    7747,   -1.971974e+02,   -2.254545e+02,   -2.166923e+02
    7748,   -2.147166e+02,   -2.181818e+02,   -2.158933e+02
    7749,   -4.350801e+01,   -2.254545e+02,   -1.975712e+02
    7750,   -5.826173e+01,   -2.254545e+02,   -2.163640e+02
    7751,   -6.717709e+01,   -2.254545e+02,   -1.814474e+02
    7752,   -4.749014e+01,   -2.181818e+02,   -1.792809e+02
    7753,   -3.952587e+01,   -2.181818e+02,   -2.158615e+02
    7754,   -6.104863e+01,   -2.254545e+02,   -1.553810e+02
    7755,   -1.963485e+02,   -2.254545e+02,   -4.096756e+01
    7756,   -2.133144e+02,   -2.254545e+02,   -5.756295e+01
    7757,   -2.143675e+02,   -2.181818e+02,   -3.861692e+01
    7758,   -2.321838e+02,   -2.254545e+02,   -3.716560e+01
    7759,   -2.311307e+02,   -2.254545e+02,   -7.396878e+01
    7760,   -2.304800e+02,   -2.254545e+02,   -1.098350e+02
    7761,   -2.316970e+02,   -2.254545e+02,   -1.451348e+02
    7762,   -2.323523e+02,   -2.254545e+02,   -1.801406e+02
    7763,   -2.323583e+02,   -2.254545e+02,   -2.150895e+02
    7764,   -2.145012e+02,   -2.254545e+02,   -2.329466e+02
    7765,   -1.791248e+02,   -2.254545e+02,   -2.337456e+02
    7766,   -1.438780e+02,   -2.254545e+02,   -2.344392e+02
    7767,   -1.093446e+02,   -2.254545e+02,   -2.344925e+02
    7768,   -7.421308e+01,   -2.254545e+02,   -2.334332e+02
    7769,   -3.762008e+01,   -2.254545e+02,   -2.329307e+02
    7770,   -2.159338e+02,   -2.254545e+02,   -1.930846e+01
    7771,   -1.976293e+01,   -2.254545e+02,   -2.166807e+02
    7772,   -2.374507e+01,   -2.254545e+02,   -1.821404e+02
    7773,   -3.730356e+01,   -2.254545e+02,   -1.419906e+02
    7774,   -1.318990e+02,   -2.327273e+02,   -9.894454e+01
    7775,   -7.460712e+01,   -2.327273e+02,   -1.314812e+02
    7776,   -1.039130e+02,   -2.327273e+02,   -1.521965e+02
    7777,   -1.378445e+02,   -2.327273e+02,   -1.334891e+02
    7778,   -1.394960e+02,   -2.327273e+02,   -5.325721e+01
    7779,   -1.783295e+02,   -2.327273e+02,   -4.331821e+01
    7780,   -1.743402e+02,   -2.327273e+02,   -8.449678e+01
    7781,   -1.744260e+02,   -2.327273e+02,   -1.209699e+02
    7782,   -1.218073e+02,   -2.327273e+02,   -1.676800e+02
    7783,   -1.455735e+02,   -2.327273e+02,   -1.611071e+02
    7784,   -1.162877e+02,   -2.327273e+02,   -1.900174e+02
    7785,   -1.463455e+02,   -2.327273e+02,   -1.888011e+02
    7786,   -8.686404e+01,   -2.327273e+02,   -1.836139e+02
    7787,   -1.778796e+02,   -2.327273e+02,   -1.536348e+02
    7788,   -1.115463e+02,   -2.327273e+02,   -2.189851e+02
    7789,   -1.448988e+02,   -2.327273e+02,   -2.188785e+02
    7790,   -7.699760e+01,   -2.327273e+02,   -2.168664e+02
    7791,   -1.798407e+02,   -2.327273e+02,   -1.851685e+02
    7792,   -1.796782e+02,   -2.327273e+02,   -2.174912e+02
    7793,   -2.109599e+02,   -2.327273e+02,   -1.125271e+02
    7794,   -2.122614e+02,   -2.327273e+02,   -7.650898e+01
    7795,   -2.133939e+02,   -2.327273e+02,   -1.474125e+02
    7796,   -2.147047e+02,   -2.327273e+02,   -1.817097e+02
    7797,   -2.147166e+02,   -2.327273e+02,   -2.158933e+02
    7798,   -4.749014e+01,   -2.327273e+02,   -1.792809e+02
    7799,   -3.952587e+01,   -2.327273e+02,   -2.158615e+02
    7800,   -2.143675e+02,   -2.327273e+02,   -3.861692e+01
    7801,   -2.500000e+02,   -7.200000e+01,   -2.500000e+02
    7802,   -2.500000e+02,   -5.600000e+01,   -2.500000e+02
    7803,   -2.500000e+02,   -4.000000e+01,   -2.500000e+02
    7804,   -2.500000e+02,   -2.400000e+01,   -2.500000e+02
    7805,   -2.500000e+02,   -8.000000e+00,   -2.500000e+02
    7806,   -2.321429e+02,    0.000000e+00,   -2.500000e+02
    7807,   -1.964286e+02,    0.000000e+00,   -2.500000e+02
    7808,   -1.607143e+02,    0.000000e+00,   -2.500000e+02
    7809,   -1.250000e+02,    0.000000e+00,   -2.500000e+02
    7810,   -8.928571e+01,    0.000000e+00,   -2.500000e+02
    7811,   -5.357143e+01,    0.000000e+00,   -2.500000e+02
    7812,   -1.785714e+01,    0.000000e+00,   -2.500000e+02
    7813,   -1.785714e+01,   -1.600000e+01,   -2.500000e+02
    7814,   -3.571429e+01,   -8.000000e+00,   -2.500000e+02
    7815,   -1.785714e+01,   -3.200000e+01,   -2.500000e+02
    7816,   -3.571429e+01,   -2.400000e+01,   -2.500000e+02
    7817,   -1.785714e+01,   -4.800000e+01,   -2.500000e+02
    7818,   -3.571429e+01,   -4.000000e+01,   -2.500000e+02
    7819,   -1.785714e+01,   -6.400000e+01,   -2.500000e+02
    7820,   -3.571429e+01,   -5.600000e+01,   -2.500000e+02
    7821,   -3.571429e+01,   -7.200000e+01,   -2.500000e+02
    7822,   -5.357143e+01,   -1.600000e+01,   -2.500000e+02
    7823,   -7.142857e+01,   -8.000000e+00,   -2.500000e+02
    7824,   -5.357143e+01,   -3.200000e+01,   -2.500000e+02
    7825,   -7.142857e+01,   -2.400000e+01,   -2.500000e+02
    7826,   -5.357143e+01,   -4.800000e+01,   -2.500000e+02
    7827,   -7.142857e+01,   -4.000000e+01,   -2.500000e+02
    7828,   -5.357143e+01,   -6.400000e+01,   -2.500000e+02
    7829,   -7.142857e+01,   -5.600000e+01,   -2.500000e+02
    7830,   -7.142857e+01,   -7.200000e+01,   -2.500000e+02
    7831,   -8.928571e+01,   -1.600000e+01,   -2.500000e+02
    7832,   -1.071429e+02,   -8.000000e+00,   -2.500000e+02
    7833,   -8.928571e+01,   -3.200000e+01,   -2.500000e+02
    7834,   -1.071429e+02,   -2.400000e+01,   -2.500000e+02
    7835,   -8.928571e+01,   -4.800000e+01,   -2.500000e+02
    7836,   -1.071429e+02,   -4.000000e+01,   -2.500000e+02
    7837,   -8.928571e+01,   -6.400000e+01,   -2.500000e+02
    7838,   -1.071429e+02,   -5.600000e+01,   -2.500000e+02
    7839,   -1.071429e+02,   -7.200000e+01,   -2.500000e+02
    7840,   -1.250000e+02,   -1.600000e+01,   -2.500000e+02
    7841,   -1.428571e+02,   -8.000000e+00,   -2.500000e+02
    7842,   -1.250000e+02,   -3.200000e+01,   -2.500000e+02
    7843,   -1.428571e+02,   -2.400000e+01,   -2.500000e+02
    7844,   -1.250000e+02,   -4.800000e+01,   -2.500000e+02
    7845,   -1.428571e+02,   -4.000000e+01,   -2.500000e+02
    7846,   -1.250000e+02,   -6.400000e+01,   -2.500000e+02
    7847,   -1.428571e+02,   -5.600000e+01,   -2.500000e+02
    7848,   -1.428571e+02,   -7.200000e+01,   -2.500000e+02
    7849,   -1.607143e+02,   -1.600000e+01,   -2.500000e+02
    7850,   -1.785714e+02,   -8.000000e+00,   -2.500000e+02
    7851,   -1.607143e+02,   -3.200000e+01,   -2.500000e+02
    7852,   -1.785714e+02,   -2.400000e+01,   -2.500000e+02
    7853,   -1.607143e+02,   -4.800000e+01,   -2.500000e+02
    7854,   -1.785714e+02,   -4.000000e+01,   -2.500000e+02
    7855,   -1.607143e+02,   -6.400000e+01,   -2.500000e+02
    7856,   -1.785714e+02,   -5.600000e+01,   -2.500000e+02
    7857,   -1.785714e+02,   -7.200000e+01,   -2.500000e+02
    7858,   -1.964286e+02,   -1.600000e+01,   -2.500000e+02
    7859,   -2.142857e+02,   -8.000000e+00,   -2.500000e+02
    7860,   -1.964286e+02,   -3.200000e+01,   -2.500000e+02
    7861,   -2.142857e+02,   -2.400000e+01,   -2.500000e+02
    7862,   -1.964286e+02,   -4.800000e+01,   -2.500000e+02
    7863,   -2.142857e+02,   -4.000000e+01,   -2.500000e+02
    7864,   -1.964286e+02,   -6.400000e+01,   -2.500000e+02
    7865,   -2.142857e+02,   -5.600000e+01,   -2.500000e+02
    7866,   -2.142857e+02,   -7.200000e+01,   -2.500000e+02
    7867,   -2.321429e+02,   -1.600000e+01,   -2.500000e+02
    7868,   -2.321429e+02,   -3.200000e+01,   -2.500000e+02
    7869,   -2.321429e+02,   -4.800000e+01,   -2.500000e+02
    7870,   -2.321429e+02,   -6.400000e+01,   -2.500000e+02
    7871,   -1.200000e+02,   -7.200000e+01,   -4.408728e-15
    7872,   -1.200000e+02,   -5.600000e+01,   -3.429011e-15
    7873,   -1.200000e+02,   -4.000000e+01,   -2.449294e-15
    7874,   -1.200000e+02,   -2.400000e+01,   -1.469576e-15
    7875,   -1.200000e+02,   -8.000000e+00,   -4.898587e-16
    7876,   -1.362500e+02,    0.000000e+00,    0.000000e+00
    7877,   -1.687500e+02,    0.000000e+00,    0.000000e+00
    7878,   -2.012500e+02,    0.000000e+00,    0.000000e+00
    7879,   -2.337500e+02,    0.000000e+00,    0.000000e+00
    7880,   -2.500000e+02,   -8.000000e+00,    0.000000e+00
    7881,   -2.500000e+02,   -2.400000e+01,    0.000000e+00
    7882,   -2.500000e+02,   -4.000000e+01,    0.000000e+00
    7883,   -2.500000e+02,   -5.600000e+01,    0.000000e+00
    7884,   -2.500000e+02,   -7.200000e+01,    0.000000e+00
    7885,   -1.362500e+02,   -6.400000e+01,    0.000000e+00
    7886,   -1.525000e+02,   -7.200000e+01,    0.000000e+00
    7887,   -1.362500e+02,   -4.800000e+01,    0.000000e+00
    7888,   -1.525000e+02,   -5.600000e+01,    0.000000e+00
    7889,   -1.362500e+02,   -3.200000e+01,    0.000000e+00
    7890,   -1.525000e+02,   -4.000000e+01,    0.000000e+00
    7891,   -1.362500e+02,   -1.600000e+01,    0.000000e+00
    7892,   -1.525000e+02,   -2.400000e+01,    0.000000e+00
    7893,   -1.525000e+02,   -8.000000e+00,    0.000000e+00
    7894,   -1.687500e+02,   -6.400000e+01,    0.000000e+00
    7895,   -1.850000e+02,   -7.200000e+01,    0.000000e+00
    7896,   -1.687500e+02,   -4.800000e+01,    0.000000e+00
    7897,   -1.850000e+02,   -5.600000e+01,    0.000000e+00
    7898,   -1.687500e+02,   -3.200000e+01,    0.000000e+00
    7899,   -1.850000e+02,   -4.000000e+01,    0.000000e+00
    7900,   -1.687500e+02,   -1.600000e+01,    0.000000e+00
    7901,   -1.850000e+02,   -2.400000e+01,    0.000000e+00
    7902,   -1.850000e+02,   -8.000000e+00,    0.000000e+00
    7903,   -2.012500e+02,   -6.400000e+01,    0.000000e+00
    7904,   -2.175000e+02,   -7.200000e+01,    0.000000e+00
    7905,   -2.012500e+02,   -4.800000e+01,    0.000000e+00
    7906,   -2.175000e+02,   -5.600000e+01,    0.000000e+00
    7907,   -2.012500e+02,   -3.200000e+01,    0.000000e+00
    7908,   -2.175000e+02,   -4.000000e+01,    0.000000e+00
    7909,   -2.012500e+02,   -1.600000e+01,    0.000000e+00
    7910,   -2.175000e+02,   -2.400000e+01,    0.000000e+00
    7911,   -2.175000e+02,   -8.000000e+00,    0.000000e+00
    7912,   -2.337500e+02,   -6.400000e+01,    0.000000e+00
    7913,   -2.337500e+02,   -4.800000e+01,    0.000000e+00
    7914,   -2.337500e+02,   -3.200000e+01,    0.000000e+00
    7915,   -2.337500e+02,   -1.600000e+01,    0.000000e+00
    7916,   -1.108655e+02,    0.000000e+00,   -4.592201e+01
    7917,   -4.592201e+01,    0.000000e+00,   -1.108655e+02
    7918,   -4.592201e+01,   -6.400000e+01,   -1.108655e+02
    7919,   -8.485281e+01,   -7.200000e+01,   -8.485281e+01
    7920,   -4.592201e+01,   -4.800000e+01,   -1.108655e+02
    7921,   -8.485281e+01,   -5.600000e+01,   -8.485281e+01
    7922,   -4.592201e+01,   -3.200000e+01,   -1.108655e+02
    7923,   -8.485281e+01,   -4.000000e+01,   -8.485281e+01
    7924,   -4.592201e+01,   -1.600000e+01,   -1.108655e+02
    7925,   -8.485281e+01,   -2.400000e+01,   -8.485281e+01
    7926,   -8.485281e+01,   -8.000000e+00,   -8.485281e+01
    7927,   -1.108655e+02,   -6.400000e+01,   -4.592201e+01
    7928,   -1.108655e+02,   -4.800000e+01,   -4.592201e+01
    7929,   -1.108655e+02,   -3.200000e+01,   -4.592201e+01
    7930,   -1.108655e+02,   -1.600000e+01,   -4.592201e+01
    7931,   -2.500000e+02,    0.000000e+00,   -1.785714e+01
    7932,   -2.500000e+02,    0.000000e+00,   -5.357143e+01
    7933,   -2.500000e+02,    0.000000e+00,   -8.928571e+01
    7934,   -2.500000e+02,    0.000000e+00,   -1.250000e+02
    7935,   -2.500000e+02,    0.000000e+00,   -1.607143e+02
    7936,   -2.500000e+02,    0.000000e+00,   -1.964286e+02
    7937,   -2.500000e+02,    0.000000e+00,   -2.321429e+02
    7938,   -2.500000e+02,   -6.400000e+01,   -1.785714e+01
    7939,   -2.500000e+02,   -7.200000e+01,   -3.571429e+01
    7940,   -2.500000e+02,   -4.800000e+01,   -1.785714e+01
    7941,   -2.500000e+02,   -5.600000e+01,   -3.571429e+01
    7942,   -2.500000e+02,   -3.200000e+01,   -1.785714e+01
    7943,   -2.500000e+02,   -4.000000e+01,   -3.571429e+01
    7944,   -2.500000e+02,   -1.600000e+01,   -1.785714e+01
    7945,   -2.500000e+02,   -2.400000e+01,   -3.571429e+01
    7946,   -2.500000e+02,   -8.000000e+00,   -3.571429e+01
    7947,   -2.500000e+02,   -6.400000e+01,   -5.357143e+01
    7948,   -2.500000e+02,   -7.200000e+01,   -7.142857e+01
    7949,   -2.500000e+02,   -4.800000e+01,   -5.357143e+01
    7950,   -2.500000e+02,   -5.600000e+01,   -7.142857e+01
    7951,   -2.500000e+02,   -3.200000e+01,   -5.357143e+01
    7952,   -2.500000e+02,   -4.000000e+01,   -7.142857e+01
    7953,   -2.500000e+02,   -1.600000e+01,   -5.357143e+01
    7954,   -2.500000e+02,   -2.400000e+01,   -7.142857e+01
    7955,   -2.500000e+02,   -8.000000e+00,   -7.142857e+01
    7956,   -2.500000e+02,   -6.400000e+01,   -8.928571e+01
    7957,   -2.500000e+02,   -7.200000e+01,   -1.071429e+02
    7958,   -2.500000e+02,   -4.800000e+01,   -8.928571e+01
    7959,   -2.500000e+02,   -5.600000e+01,   -1.071429e+02
    7960,   -2.500000e+02,   -3.200000e+01,   -8.928571e+01
    7961,   -2.500000e+02,   -4.000000e+01,   -1.071429e+02
    7962,   -2.500000e+02,   -1.600000e+01,   -8.928571e+01
    7963,   -2.500000e+02,   -2.400000e+01,   -1.071429e+02
    7964,   -2.500000e+02,   -8.000000e+00,   -1.071429e+02
    7965,   -2.500000e+02,   -6.400000e+01,   -1.250000e+02
    7966,   -2.500000e+02,   -7.200000e+01,   -1.428571e+02
    7967,   -2.500000e+02,   -4.800000e+01,   -1.250000e+02
    7968,   -2.500000e+02,   -5.600000e+01,   -1.428571e+02
    7969,   -2.500000e+02,   -3.200000e+01,   -1.250000e+02
    7970,   -2.500000e+02,   -4.000000e+01,   -1.428571e+02
    7971,   -2.500000e+02,   -1.600000e+01,   -1.250000e+02
    7972,   -2.500000e+02,   -2.400000e+01,   -1.428571e+02
    7973,   -2.500000e+02,   -8.000000e+00,   -1.428571e+02
    7974,   -2.500000e+02,   -6.400000e+01,   -1.607143e+02
    7975,   -2.500000e+02,   -7.200000e+01,   -1.785714e+02
    7976,   -2.500000e+02,   -4.800000e+01,   -1.607143e+02
    7977,   -2.500000e+02,   -5.600000e+01,   -1.785714e+02
    7978,   -2.500000e+02,   -3.200000e+01,   -1.607143e+02
    7979,   -2.500000e+02,   -4.000000e+01,   -1.785714e+02
    7980,   -2.500000e+02,   -1.600000e+01,   -1.607143e+02
    7981,   -2.500000e+02,   -2.400000e+01,   -1.785714e+02
    7982,   -2.500000e+02,   -8.000000e+00,   -1.785714e+02
    7983,   -2.500000e+02,   -6.400000e+01,   -1.964286e+02
    7984,   -2.500000e+02,   -7.200000e+01,   -2.142857e+02
    7985,   -2.500000e+02,   -4.800000e+01,   -1.964286e+02
    7986,   -2.500000e+02,   -5.600000e+01,   -2.142857e+02
    7987,   -2.500000e+02,   -3.200000e+01,   -1.964286e+02
    7988,   -2.500000e+02,   -4.000000e+01,   -2.142857e+02
    7989,   -2.500000e+02,   -1.600000e+01,   -1.964286e+02
    7990,   -2.500000e+02,   -2.400000e+01,   -2.142857e+02
    7991,   -2.500000e+02,   -8.000000e+00,   -2.142857e+02
    7992,   -2.500000e+02,   -6.400000e+01,   -2.321429e+02
    7993,   -2.500000e+02,   -4.800000e+01,   -2.321429e+02
    7994,   -2.500000e+02,   -3.200000e+01,   -2.321429e+02
    7995,   -2.500000e+02,   -1.600000e+01,   -2.321429e+02
    7996,   -1.032531e+02,    0.000000e+00,   -1.152129e+02
    7997,   -8.926004e+01,    0.000000e+00,   -1.418388e+02
    7998,   -1.208787e+02,    0.000000e+00,   -1.428428e+02
    7999,   -1.348718e+02,    0.000000e+00,   -1.162168e+02
    8000,   -1.121744e+02,    0.000000e+00,   -6.905501e+01
    8001,   -7.972997e+01,    0.000000e+00,   -1.081670e+02
    8002,   -1.356975e+02,    0.000000e+00,   -7.610088e+01
    8003,   -1.589127e+02,    0.000000e+00,   -4.828771e+01
    8004,   -1.531196e+02,    0.000000e+00,   -9.172066e+01
    8005,   -1.763348e+02,    0.000000e+00,   -6.390749e+01
    8006,   -1.561353e+02,    0.000000e+00,   -1.272295e+02
    8007,   -1.743831e+02,    0.000000e+00,   -1.027333e+02
    8008,   -1.128601e+02,    0.000000e+00,   -1.599382e+02
    8009,   -1.336904e+02,    0.000000e+00,   -1.643935e+02
    8010,   -1.417090e+02,    0.000000e+00,   -1.472981e+02
    8011,   -1.816647e+02,    0.000000e+00,   -2.165910e+01
    8012,   -1.459980e+02,    0.000000e+00,   -2.662861e+01
    8013,   -1.313166e+02,    0.000000e+00,   -1.894093e+02
    8014,   -1.459595e+02,    0.000000e+00,   -1.749541e+02
    8015,   -1.190475e+02,    0.000000e+00,   -1.788487e+02
    8016,   -1.015759e+02,    0.000000e+00,   -1.868157e+02
    8017,   -9.538850e+01,    0.000000e+00,   -1.679052e+02
    8018,   -1.617266e+02,    0.000000e+00,   -1.573710e+02
    8019,   -1.761528e+02,    0.000000e+00,   -1.373024e+02
    8020,   -1.139170e+02,    0.000000e+00,   -2.045013e+02
    8021,   -1.282226e+02,    0.000000e+00,   -2.189318e+02
    8022,   -1.456222e+02,    0.000000e+00,   -2.038398e+02
    8023,   -8.193082e+01,    0.000000e+00,   -2.002402e+02
    8024,   -9.427196e+01,    0.000000e+00,   -2.179258e+02
    8025,   -1.630931e+02,    0.000000e+00,   -1.869848e+02
    8026,   -1.788601e+02,    0.000000e+00,   -1.694017e+02
    8027,   -1.797594e+02,    0.000000e+00,   -2.013299e+02
    8028,   -1.622885e+02,    0.000000e+00,   -2.181849e+02
    8029,   -1.926930e+02,    0.000000e+00,   -1.167485e+02
    8030,   -2.116106e+02,    0.000000e+00,   -9.451805e+01
    8031,   -1.933008e+02,    0.000000e+00,   -8.050288e+01
    8032,   -2.121769e+02,    0.000000e+00,   -1.299698e+02
    8033,   -1.956368e+02,    0.000000e+00,   -1.505237e+02
    8034,   -2.140493e+02,    0.000000e+00,   -1.645611e+02
    8035,   -1.972727e+02,    0.000000e+00,   -1.834391e+02
    8036,   -2.147106e+02,    0.000000e+00,   -1.988015e+02
    8037,   -1.971974e+02,    0.000000e+00,   -2.166923e+02
    8038,   -4.350801e+01,    0.000000e+00,   -1.975712e+02
    8039,   -5.826173e+01,    0.000000e+00,   -2.163640e+02
    8040,   -6.717709e+01,    0.000000e+00,   -1.814474e+02
    8041,   -6.104863e+01,    0.000000e+00,   -1.553810e+02
    8042,   -1.963485e+02,    0.000000e+00,   -4.096756e+01
    8043,   -2.133144e+02,    0.000000e+00,   -5.756295e+01
    8044,   -2.321838e+02,    0.000000e+00,   -3.716560e+01
    8045,   -2.311307e+02,    0.000000e+00,   -7.396878e+01
    8046,   -2.304800e+02,    0.000000e+00,   -1.098350e+02
    8047,   -2.316970e+02,    0.000000e+00,   -1.451348e+02
    8048,   -2.323523e+02,    0.000000e+00,   -1.801406e+02
    8049,   -2.323583e+02,    0.000000e+00,   -2.150895e+02
    8050,   -2.145012e+02,    0.000000e+00,   -2.329466e+02
    8051,   -1.791248e+02,    0.000000e+00,   -2.337456e+02
    8052,   -1.438780e+02,    0.000000e+00,   -2.344392e+02
    8053,   -1.093446e+02,    0.000000e+00,   -2.344925e+02
    8054,   -7.421308e+01,    0.000000e+00,   -2.334332e+02
    8055,   -3.762008e+01,    0.000000e+00,   -2.329307e+02
    8056,   -2.159338e+02,    0.000000e+00,   -1.930846e+01
    8057,   -1.976293e+01,    0.000000e+00,   -2.166807e+02
    8058,   -2.374507e+01,    0.000000e+00,   -1.821404e+02
    8059,   -3.730356e+01,    0.000000e+00,   -1.419906e+02
    8060,   -1.318990e+02,   -7.200000e+01,   -9.894454e+01
    8061,   -7.460712e+01,   -7.200000e+01,   -1.314812e+02
    8062,   -1.039130e+02,   -7.200000e+01,   -1.521965e+02
    8063,   -1.378445e+02,   -7.200000e+01,   -1.334891e+02
    8064,   -1.032531e+02,   -6.400000e+01,   -1.152129e+02
    8065,   -8.926004e+01,   -6.400000e+01,   -1.418388e+02
    8066,   -1.208787e+02,   -6.400000e+01,   -1.428428e+02
    8067,   -1.348718e+02,   -6.400000e+01,   -1.162168e+02
    8068,   -1.394960e+02,   -7.200000e+01,   -5.325721e+01
    8069,   -1.121744e+02,   -6.400000e+01,   -6.905501e+01
    8070,   -7.972997e+01,   -6.400000e+01,   -1.081670e+02
    8071,   -1.356975e+02,   -6.400000e+01,   -7.610088e+01
    8072,   -1.783295e+02,   -7.200000e+01,   -4.331821e+01
    8073,   -1.743402e+02,   -7.200000e+01,   -8.449678e+01
    8074,   -1.589127e+02,   -6.400000e+01,   -4.828771e+01
    8075,   -1.531196e+02,   -6.400000e+01,   -9.172066e+01
    8076,   -1.763348e+02,   -6.400000e+01,   -6.390749e+01
    8077,   -1.744260e+02,   -7.200000e+01,   -1.209699e+02
    8078,   -1.561353e+02,   -6.400000e+01,   -1.272295e+02
    8079,   -1.743831e+02,   -6.400000e+01,   -1.027333e+02
    8080,   -1.218073e+02,   -7.200000e+01,   -1.676800e+02
    8081,   -1.455735e+02,   -7.200000e+01,   -1.611071e+02
    8082,   -1.128601e+02,   -6.400000e+01,   -1.599382e+02
    8083,   -1.336904e+02,   -6.400000e+01,   -1.643935e+02
    8084,   -1.417090e+02,   -6.400000e+01,   -1.472981e+02
    8085,   -1.816647e+02,   -6.400000e+01,   -2.165910e+01
    8086,   -1.459980e+02,   -6.400000e+01,   -2.662861e+01
    8087,   -1.162877e+02,   -7.200000e+01,   -1.900174e+02
    8088,   -1.463455e+02,   -7.200000e+01,   -1.888011e+02
    8089,   -1.313166e+02,   -6.400000e+01,   -1.894093e+02
    8090,   -1.459595e+02,   -6.400000e+01,   -1.749541e+02
    8091,   -1.190475e+02,   -6.400000e+01,   -1.788487e+02
    8092,   -8.686404e+01,   -7.200000e+01,   -1.836139e+02
    8093,   -1.015759e+02,   -6.400000e+01,   -1.868157e+02
    8094,   -9.538850e+01,   -6.400000e+01,   -1.679052e+02
    8095,   -1.778796e+02,   -7.200000e+01,   -1.536348e+02
    8096,   -1.617266e+02,   -6.400000e+01,   -1.573710e+02
    8097,   -1.761528e+02,   -6.400000e+01,   -1.373024e+02
    8098,   -1.115463e+02,   -7.200000e+01,   -2.189851e+02
    8099,   -1.448988e+02,   -7.200000e+01,   -2.188785e+02
    8100,   -1.139170e+02,   -6.400000e+01,   -2.045013e+02
    8101,   -1.282226e+02,   -6.400000e+01,   -2.189318e+02
    8102,   -1.456222e+02,   -6.400000e+01,   -2.038398e+02
    8103,   -7.699760e+01,   -7.200000e+01,   -2.168664e+02
    8104,   -8.193082e+01,   -6.400000e+01,   -2.002402e+02
    8105,   -9.427196e+01,   -6.400000e+01,   -2.179258e+02
    8106,   -1.798407e+02,   -7.200000e+01,   -1.851685e+02
    8107,   -1.630931e+02,   -6.400000e+01,   -1.869848e+02
    8108,   -1.788601e+02,   -6.400000e+01,   -1.694017e+02
    8109,   -1.796782e+02,   -7.200000e+01,   -2.174912e+02
    8110,   -1.797594e+02,   -6.400000e+01,   -2.013299e+02
    8111,   -1.622885e+02,   -6.400000e+01,   -2.181849e+02
    8112,   -2.109599e+02,   -7.200000e+01,   -1.125271e+02
    8113,   -2.122614e+02,   -7.200000e+01,   -7.650898e+01
    8114,   -1.926930e+02,   -6.400000e+01,   -1.167485e+02
    8115,   -2.116106e+02,   -6.400000e+01,   -9.451805e+01
    8116,   -1.933008e+02,   -6.400000e+01,   -8.050288e+01
    8117,   -2.133939e+02,   -7.200000e+01,   -1.474125e+02
    8118,   -2.121769e+02,   -6.400000e+01,   -1.299698e+02
    8119,   -1.956368e+02,   -6.400000e+01,   -1.505237e+02
    8120,   -2.147047e+02,   -7.200000e+01,   -1.817097e+02
    8121,   -2.140493e+02,   -6.400000e+01,   -1.645611e+02
    8122,   -1.972727e+02,   -6.400000e+01,   -1.834391e+02
    8123,   -2.147166e+02,   -7.200000e+01,   -2.158933e+02
    8124,   -2.147106e+02,   -6.400000e+01,   -1.988015e+02
    8125,   -1.971974e+02,   -6.400000e+01,   -2.166923e+02
    8126,   -4.749014e+01,   -7.200000e+01,   -1.792809e+02
    8127,   -3.952587e+01,   -7.200000e+01,   -2.158615e+02
    8128,   -4.350801e+01,   -6.400000e+01,   -1.975712e+02
    8129,   -5.826173e+01,   -6.400000e+01,   -2.163640e+02
    8130,   -6.717709e+01,   -6.400000e+01,   -1.814474e+02
    8131,   -6.104863e+01,   -6.400000e+01,   -1.553810e+02
    8132,   -2.143675e+02,   -7.200000e+01,   -3.861692e+01
    8133,   -1.963485e+02,   -6.400000e+01,   -4.096756e+01
    8134,   -2.133144e+02,   -6.400000e+01,   -5.756295e+01
    8135,   -2.321838e+02,   -6.400000e+01,   -3.716560e+01
    8136,   -2.311307e+02,   -6.400000e+01,   -7.396878e+01
    8137,   -2.304800e+02,   -6.400000e+01,   -1.098350e+02
    8138,   -2.316970e+02,   -6.400000e+01,   -1.451348e+02
    8139,   -2.323523e+02,   -6.400000e+01,   -1.801406e+02
    8140,   -2.323583e+02,   -6.400000e+01,   -2.150895e+02
    8141,   -2.145012e+02,   -6.400000e+01,   -2.329466e+02
    8142,   -1.791248e+02,   -6.400000e+01,   -2.337456e+02
    8143,   -1.438780e+02,   -6.400000e+01,   -2.344392e+02
    8144,   -1.093446e+02,   -6.400000e+01,   -2.344925e+02
    8145,   -7.421308e+01,   -6.400000e+01,   -2.334332e+02
    8146,   -3.762008e+01,   -6.400000e+01,   -2.329307e+02
    8147,   -2.159338e+02,   -6.400000e+01,   -1.930846e+01
    8148,   -1.976293e+01,   -6.400000e+01,   -2.166807e+02
    8149,   -2.374507e+01,   -6.400000e+01,   -1.821404e+02
    8150,   -3.730356e+01,   -6.400000e+01,   -1.419906e+02
    8151,   -1.318990e+02,   -5.600000e+01,   -9.894454e+01
    8152,   -7.460712e+01,   -5.600000e+01,   -1.314812e+02
    8153,   -1.039130e+02,   -5.600000e+01,   -1.521965e+02
    8154,   -1.378445e+02,   -5.600000e+01,   -1.334891e+02
    8155,   -1.032531e+02,   -4.800000e+01,   -1.152129e+02
    8156,   -8.926004e+01,   -4.800000e+01,   -1.418388e+02
    8157,   -1.208787e+02,   -4.800000e+01,   -1.428428e+02
    8158,   -1.348718e+02,   -4.800000e+01,   -1.162168e+02
    8159,   -1.394960e+02,   -5.600000e+01,   -5.325721e+01
    8160,   -1.121744e+02,   -4.800000e+01,   -6.905501e+01
    8161,   -7.972997e+01,   -4.800000e+01,   -1.081670e+02
    8162,   -1.356975e+02,   -4.800000e+01,   -7.610088e+01
    8163,   -1.783295e+02,   -5.600000e+01,   -4.331821e+01
    8164,   -1.743402e+02,   -5.600000e+01,   -8.449678e+01
    8165,   -1.589127e+02,   -4.800000e+01,   -4.828771e+01
    8166,   -1.531196e+02,   -4.800000e+01,   -9.172066e+01
    8167,   -1.763348e+02,   -4.800000e+01,   -6.390749e+01
    8168,   -1.744260e+02,   -5.600000e+01,   -1.209699e+02
    8169,   -1.561353e+02,   -4.800000e+01,   -1.272295e+02
    8170,   -1.743831e+02,   -4.800000e+01,   -1.027333e+02
    8171,   -1.218073e+02,   -5.600000e+01,   -1.676800e+02
    8172,   -1.455735e+02,   -5.600000e+01,   -1.611071e+02
    8173,   -1.128601e+02,   -4.800000e+01,   -1.599382e+02
    8174,   -1.336904e+02,   -4.800000e+01,   -1.643935e+02
    8175,   -1.417090e+02,   -4.800000e+01,   -1.472981e+02
    8176,   -1.816647e+02,   -4.800000e+01,   -2.165910e+01
    8177,   -1.459980e+02,   -4.800000e+01,   -2.662861e+01
    8178,   -1.162877e+02,   -5.600000e+01,   -1.900174e+02
    8179,   -1.463455e+02,   -5.600000e+01,   -1.888011e+02
    8180,   -1.313166e+02,   -4.800000e+01,   -1.894093e+02
    8181,   -1.459595e+02,   -4.800000e+01,   -1.749541e+02
    8182,   -1.190475e+02,   -4.800000e+01,   -1.788487e+02
    8183,   -8.686404e+01,   -5.600000e+01,   -1.836139e+02
    8184,   -1.015759e+02,   -4.800000e+01,   -1.868157e+02
    8185,   -9.538850e+01,   -4.800000e+01,   -1.679052e+02
    8186,   -1.778796e+02,   -5.600000e+01,   -1.536348e+02
    8187,   -1.617266e+02,   -4.800000e+01,   -1.573710e+02
    8188,   -1.761528e+02,   -4.800000e+01,   -1.373024e+02
    8189,   -1.115463e+02,   -5.600000e+01,   -2.189851e+02
    8190,   -1.448988e+02,   -5.600000e+01,   -2.188785e+02
    8191,   -1.139170e+02,   -4.800000e+01,   -2.045013e+02
    8192,   -1.282226e+02,   -4.800000e+01,   -2.189318e+02
    8193,   -1.456222e+02,   -4.800000e+01,   -2.038398e+02
    8194,   -7.699760e+01,   -5.600000e+01,   -2.168664e+02
    8195,   -8.193082e+01,   -4.800000e+01,   -2.002402e+02
    8196,   -9.427196e+01,   -4.800000e+01,   -2.179258e+02
    8197,   -1.798407e+02,   -5.600000e+01,   -1.851685e+02
    8198,   -1.630931e+02,   -4.800000e+01,   -1.869848e+02
    8199,   -1.788601e+02,   -4.800000e+01,   -1.694017e+02
    8200,   -1.796782e+02,   -5.600000e+01,   -2.174912e+02
    8201,   -1.797594e+02,   -4.800000e+01,   -2.013299e+02
    8202,   -1.622885e+02,   -4.800000e+01,   -2.181849e+02
    8203,   -2.109599e+02,   -5.600000e+01,   -1.125271e+02
    8204,   -2.122614e+02,   -5.600000e+01,   -7.650898e+01
    8205,   -1.926930e+02,   -4.800000e+01,   -1.167485e+02
    8206,   -2.116106e+02,   -4.800000e+01,   -9.451805e+01
    8207,   -1.933008e+02,   -4.800000e+01,   -8.050288e+01
    8208,   -2.133939e+02,   -5.600000e+01,   -1.474125e+02
    8209,   -2.121769e+02,   -4.800000e+01,   -1.299698e+02
    8210,   -1.956368e+02,   -4.800000e+01,   -1.505237e+02
    8211,   -2.147047e+02,   -5.600000e+01,   -1.817097e+02
    8212,   -2.140493e+02,   -4.800000e+01,   -1.645611e+02
    8213,   -1.972727e+02,   -4.800000e+01,   -1.834391e+02
    8214,   -2.147166e+02,   -5.600000e+01,   -2.158933e+02
    8215,   -2.147106e+02,   -4.800000e+01,   -1.988015e+02
    8216,   -1.971974e+02,   -4.800000e+01,   -2.166923e+02
    8217,   -4.749014e+01,   -5.600000e+01,   -1.792809e+02
    8218,   -3.952587e+01,   -5.600000e+01,   -2.158615e+02
    8219,   -4.350801e+01,   -4.800000e+01,   -1.975712e+02
    8220,   -5.826173e+01,   -4.800000e+01,   -2.163640e+02
    8221,   -6.717709e+01,   -4.800000e+01,   -1.814474e+02
    8222,   -6.104863e+01,   -4.800000e+01,   -1.553810e+02
    8223,   -2.143675e+02,   -5.600000e+01,   -3.861692e+01
    8224,   -1.963485e+02,   -4.800000e+01,   -4.096756e+01
    8225,   -2.133144e+02,   -4.800000e+01,   -5.756295e+01
    8226,   -2.321838e+02,   -4.800000e+01,   -3.716560e+01
    8227,   -2.311307e+02,   -4.800000e+01,   -7.396878e+01
    8228,   -2.304800e+02,   -4.800000e+01,   -1.098350e+02
    8229,   -2.316970e+02,   -4.800000e+01,   -1.451348e+02
    8230,   -2.323523e+02,   -4.800000e+01,   -1.801406e+02
    8231,   -2.323583e+02,   -4.800000e+01,   -2.150895e+02
    8232,   -2.145012e+02,   -4.800000e+01,   -2.329466e+02
    8233,   -1.791248e+02,   -4.800000e+01,   -2.337456e+02
    8234,   -1.438780e+02,   -4.800000e+01,   -2.344392e+02
    8235,   -1.093446e+02,   -4.800000e+01,   -2.344925e+02
    8236,   -7.421308e+01,   -4.800000e+01,   -2.334332e+02
    8237,   -3.762008e+01,   -4.800000e+01,   -2.329307e+02
    8238,   -2.159338e+02,   -4.800000e+01,   -1.930846e+01
    8239,   -1.976293e+01,   -4.800000e+01,   -2.166807e+02
    8240,   -2.374507e+01,   -4.800000e+01,   -1.821404e+02
    8241,   -3.730356e+01,   -4.800000e+01,   -1.419906e+02
    8242,   -1.318990e+02,   -4.000000e+01,   -9.894454e+01
    8243,   -7.460712e+01,   -4.000000e+01,   -1.314812e+02
    8244,   -1.039130e+02,   -4.000000e+01,   -1.521965e+02
    8245,   -1.378445e+02,   -4.000000e+01,   -1.334891e+02
    8246,   -1.032531e+02,   -3.200000e+01,   -1.152129e+02
    8247,   -8.926004e+01,   -3.200000e+01,   -1.418388e+02
    8248,   -1.208787e+02,   -3.200000e+01,   -1.428428e+02
    8249,   -1.348718e+02,   -3.200000e+01,   -1.162168e+02
    8250,   -1.394960e+02,   -4.000000e+01,   -5.325721e+01
    8251,   -1.121744e+02,   -3.200000e+01,   -6.905501e+01
    8252,   -7.972997e+01,   -3.200000e+01,   -1.081670e+02
    8253,   -1.356975e+02,   -3.200000e+01,   -7.610088e+01
    8254,   -1.783295e+02,   -4.000000e+01,   -4.331821e+01
    8255,   -1.743402e+02,   -4.000000e+01,   -8.449678e+01
    8256,   -1.589127e+02,   -3.200000e+01,   -4.828771e+01
    8257,   -1.531196e+02,   -3.200000e+01,   -9.172066e+01
    8258,   -1.763348e+02,   -3.200000e+01,   -6.390749e+01
    8259,   -1.744260e+02,   -4.000000e+01,   -1.209699e+02
    8260,   -1.561353e+02,   -3.200000e+01,   -1.272295e+02
    8261,   -1.743831e+02,   -3.200000e+01,   -1.027333e+02
    8262,   -1.218073e+02,   -4.000000e+01,   -1.676800e+02
    8263,   -1.455735e+02,   -4.000000e+01,   -1.611071e+02
    8264,   -1.128601e+02,   -3.200000e+01,   -1.599382e+02
    8265,   -1.336904e+02,   -3.200000e+01,   -1.643935e+02
    8266,   -1.417090e+02,   -3.200000e+01,   -1.472981e+02
    8267,   -1.816647e+02,   -3.200000e+01,   -2.165910e+01
    8268,   -1.459980e+02,   -3.200000e+01,   -2.662861e+01
    8269,   -1.162877e+02,   -4.000000e+01,   -1.900174e+02
    8270,   -1.463455e+02,   -4.000000e+01,   -1.888011e+02
    8271,   -1.313166e+02,   -3.200000e+01,   -1.894093e+02
    8272,   -1.459595e+02,   -3.200000e+01,   -1.749541e+02
    8273,   -1.190475e+02,   -3.200000e+01,   -1.788487e+02
    8274,   -8.686404e+01,   -4.000000e+01,   -1.836139e+02
    8275,   -1.015759e+02,   -3.200000e+01,   -1.868157e+02
    8276,   -9.538850e+01,   -3.200000e+01,   -1.679052e+02
    8277,   -1.778796e+02,   -4.000000e+01,   -1.536348e+02
    8278,   -1.617266e+02,   -3.200000e+01,   -1.573710e+02
    8279,   -1.761528e+02,   -3.200000e+01,   -1.373024e+02
    8280,   -1.115463e+02,   -4.000000e+01,   -2.189851e+02
    8281,   -1.448988e+02,   -4.000000e+01,   -2.188785e+02
    8282,   -1.139170e+02,   -3.200000e+01,   -2.045013e+02
    8283,   -1.282226e+02,   -3.200000e+01,   -2.189318e+02
    8284,   -1.456222e+02,   -3.200000e+01,   -2.038398e+02
    8285,   -7.699760e+01,   -4.000000e+01,   -2.168664e+02
    8286,   -8.193082e+01,   -3.200000e+01,   -2.002402e+02
    8287,   -9.427196e+01,   -3.200000e+01,   -2.179258e+02
    8288,   -1.798407e+02,   -4.000000e+01,   -1.851685e+02
    8289,   -1.630931e+02,   -3.200000e+01,   -1.869848e+02
    8290,   -1.788601e+02,   -3.200000e+01,   -1.694017e+02
    8291,   -1.796782e+02,   -4.000000e+01,   -2.174912e+02
    8292,   -1.797594e+02,   -3.200000e+01,   -2.013299e+02
    8293,   -1.622885e+02,   -3.200000e+01,   -2.181849e+02
    8294,   -2.109599e+02,   -4.000000e+01,   -1.125271e+02
    8295,   -2.122614e+02,   -4.000000e+01,   -7.650898e+01
    8296,   -1.926930e+02,   -3.200000e+01,   -1.167485e+02
    8297,   -2.116106e+02,   -3.200000e+01,   -9.451805e+01
    8298,   -1.933008e+02,   -3.200000e+01,   -8.050288e+01
    8299,   -2.133939e+02,   -4.000000e+01,   -1.474125e+02
    8300,   -2.121769e+02,   -3.200000e+01,   -1.299698e+02
    8301,   -1.956368e+02,   -3.200000e+01,   -1.505237e+02
    8302,   -2.147047e+02,   -4.000000e+01,   -1.817097e+02
    8303,   -2.140493e+02,   -3.200000e+01,   -1.645611e+02
    8304,   -1.972727e+02,   -3.200000e+01,   -1.834391e+02
    8305,   -2.147166e+02,   -4.000000e+01,   -2.158933e+02
    8306,   -2.147106e+02,   -3.200000e+01,   -1.988015e+02
    8307,   -1.971974e+02,   -3.200000e+01,   -2.166923e+02
    8308,   -4.749014e+01,   -4.000000e+01,   -1.792809e+02
    8309,   -3.952587e+01,   -4.000000e+01,   -2.158615e+02
    8310,   -4.350801e+01,   -3.200000e+01,   -1.975712e+02
    8311,   -5.826173e+01,   -3.200000e+01,   -2.163640e+02
    8312,   -6.717709e+01,   -3.200000e+01,   -1.814474e+02
    8313,   -6.104863e+01,   -3.200000e+01,   -1.553810e+02
    8314,   -2.143675e+02,   -4.000000e+01,   -3.861692e+01
    8315,   -1.963485e+02,   -3.200000e+01,   -4.096756e+01
    8316,   -2.133144e+02,   -3.200000e+01,   -5.756295e+01
    8317,   -2.321838e+02,   -3.200000e+01,   -3.716560e+01
    8318,   -2.311307e+02,   -3.200000e+01,   -7.396878e+01
    8319,   -2.304800e+02,   -3.200000e+01,   -1.098350e+02
    8320,   -2.316970e+02,   -3.200000e+01,   -1.451348e+02
    8321,   -2.323523e+02,   -3.200000e+01,   -1.801406e+02
    8322,   -2.323583e+02,   -3.200000e+01,   -2.150895e+02
    8323,   -2.145012e+02,   -3.200000e+01,   -2.329466e+02
    8324,   -1.791248e+02,   -3.200000e+01,   -2.337456e+02
    8325,   -1.438780e+02,   -3.200000e+01,   -2.344392e+02
    8326,   -1.093446e+02,   -3.200000e+01,   -2.344925e+02
    8327,   -7.421308e+01,   -3.200000e+01,   -2.334332e+02
    8328,   -3.762008e+01,   -3.200000e+01,   -2.329307e+02
    8329,   -2.159338e+02,   -3.200000e+01,   -1.930846e+01
    8330,   -1.976293e+01,   -3.200000e+01,   -2.166807e+02
    8331,   -2.374507e+01,   -3.200000e+01,   -1.821404e+02
    8332,   -3.730356e+01,   -3.200000e+01,   -1.419906e+02
    8333,   -1.318990e+02,   -2.400000e+01,   -9.894454e+01
    8334,   -7.460712e+01,   -2.400000e+01,   -1.314812e+02
    8335,   -1.039130e+02,   -2.400000e+01,   -1.521965e+02
    8336,   -1.378445e+02,   -2.400000e+01,   -1.334891e+02
    8337,   -1.032531e+02,   -1.600000e+01,   -1.152129e+02
    8338,   -8.926004e+01,   -1.600000e+01,   -1.418388e+02
    8339,   -1.208787e+02,   -1.600000e+01,   -1.428428e+02
    8340,   -1.348718e+02,   -1.600000e+01,   -1.162168e+02
    8341,   -1.394960e+02,   -2.400000e+01,   -5.325721e+01
    8342,   -1.121744e+02,   -1.600000e+01,   -6.905501e+01
    8343,   -7.972997e+01,   -1.600000e+01,   -1.081670e+02
    8344,   -1.356975e+02,   -1.600000e+01,   -7.610088e+01
    8345,   -1.783295e+02,   -2.400000e+01,   -4.331821e+01
    8346,   -1.743402e+02,   -2.400000e+01,   -8.449678e+01
    8347,   -1.589127e+02,   -1.600000e+01,   -4.828771e+01
    8348,   -1.531196e+02,   -1.600000e+01,   -9.172066e+01
    8349,   -1.763348e+02,   -1.600000e+01,   -6.390749e+01
    8350,   -1.744260e+02,   -2.400000e+01,   -1.209699e+02
    8351,   -1.561353e+02,   -1.600000e+01,   -1.272295e+02
    8352,   -1.743831e+02,   -1.600000e+01,   -1.027333e+02
    8353,   -1.218073e+02,   -2.400000e+01,   -1.676800e+02
    8354,   -1.455735e+02,   -2.400000e+01,   -1.611071e+02
    8355,   -1.128601e+02,   -1.600000e+01,   -1.599382e+02
    8356,   -1.336904e+02,   -1.600000e+01,   -1.643935e+02
    8357,   -1.417090e+02,   -1.600000e+01,   -1.472981e+02
    8358,   -1.816647e+02,   -1.600000e+01,   -2.165910e+01
    8359,   -1.459980e+02,   -1.600000e+01,   -2.662861e+01
    8360,   -1.162877e+02,   -2.400000e+01,   -1.900174e+02
    8361,   -1.463455e+02,   -2.400000e+01,   -1.888011e+02
    8362,   -1.313166e+02,   -1.600000e+01,   -1.894093e+02
    8363,   -1.459595e+02,   -1.600000e+01,   -1.749541e+02
    8364,   -1.190475e+02,   -1.600000e+01,   -1.788487e+02
    8365,   -8.686404e+01,   -2.400000e+01,   -1.836139e+02
    8366,   -1.015759e+02,   -1.600000e+01,   -1.868157e+02
    8367,   -9.538850e+01,   -1.600000e+01,   -1.679052e+02
    8368,   -1.778796e+02,   -2.400000e+01,   -1.536348e+02
    8369,   -1.617266e+02,   -1.600000e+01,   -1.573710e+02
    8370,   -1.761528e+02,   -1.600000e+01,   -1.373024e+02
    8371,   -1.115463e+02,   -2.400000e+01,   -2.189851e+02
    8372,   -1.448988e+02,   -2.400000e+01,   -2.188785e+02
    8373,   -1.139170e+02,   -1.600000e+01,   -2.045013e+02
    8374,   -1.282226e+02,   -1.600000e+01,   -2.189318e+02
    8375,   -1.456222e+02,   -1.600000e+01,   -2.038398e+02
    8376,   -7.699760e+01,   -2.400000e+01,   -2.168664e+02
    8377,   -8.193082e+01,   -1.600000e+01,   -2.002402e+02
    8378,   -9.427196e+01,   -1.600000e+01,   -2.179258e+02
    8379,   -1.798407e+02,   -2.400000e+01,   -1.851685e+02
    8380,   -1.630931e+02,   -1.600000e+01,   -1.869848e+02
    8381,   -1.788601e+02,   -1.600000e+01,   -1.694017e+02
    8382,   -1.796782e+02,   -2.400000e+01,   -2.174912e+02
    8383,   -1.797594e+02,   -1.600000e+01,   -2.013299e+02
    8384,   -1.622885e+02,   -1.600000e+01,   -2.181849e+02
    8385,   -2.109599e+02,   -2.400000e+01,   -1.125271e+02
    8386,   -2.122614e+02,   -2.400000e+01,   -7.650898e+01
    8387,   -1.926930e+02,   -1.600000e+01,   -1.167485e+02
    8388,   -2.116106e+02,   -1.600000e+01,   -9.451805e+01
    8389,   -1.933008e+02,   -1.600000e+01,   -8.050288e+01
    8390,   -2.133939e+02,   -2.400000e+01,   -1.474125e+02
    8391,   -2.121769e+02,   -1.600000e+01,   -1.299698e+02
    8392,   -1.956368e+02,   -1.600000e+01,   -1.505237e+02
    8393,   -2.147047e+02,   -2.400000e+01,   -1.817097e+02
    8394,   -2.140493e+02,   -1.600000e+01,   -1.645611e+02
    8395,   -1.972727e+02,   -1.600000e+01,   -1.834391e+02
    8396,   -2.147166e+02,   -2.400000e+01,   -2.158933e+02
    8397,   -2.147106e+02,   -1.600000e+01,   -1.988015e+02
    8398,   -1.971974e+02,   -1.600000e+01,   -2.166923e+02
    8399,   -4.749014e+01,   -2.400000e+01,   -1.792809e+02
    8400,   -3.952587e+01,   -2.400000e+01,   -2.158615e+02
    8401,   -4.350801e+01,   -1.600000e+01,   -1.975712e+02
    8402,   -5.826173e+01,   -1.600000e+01,   -2.163640e+02
    8403,   -6.717709e+01,   -1.600000e+01,   -1.814474e+02
    8404,   -6.104863e+01,   -1.600000e+01,   -1.553810e+02
    8405,   -2.143675e+02,   -2.400000e+01,   -3.861692e+01
    8406,   -1.963485e+02,   -1.600000e+01,   -4.096756e+01
    8407,   -2.133144e+02,   -1.600000e+01,   -5.756295e+01
    8408,   -2.321838e+02,   -1.600000e+01,   -3.716560e+01
    8409,   -2.311307e+02,   -1.600000e+01,   -7.396878e+01
    8410,   -2.304800e+02,   -1.600000e+01,   -1.098350e+02
    8411,   -2.316970e+02,   -1.600000e+01,   -1.451348e+02
    8412,   -2.323523e+02,   -1.600000e+01,   -1.801406e+02
    8413,   -2.323583e+02,   -1.600000e+01,   -2.150895e+02
    8414,   -2.145012e+02,   -1.600000e+01,   -2.329466e+02
    8415,   -1.791248e+02,   -1.600000e+01,   -2.337456e+02
    8416,   -1.438780e+02,   -1.600000e+01,   -2.344392e+02
    8417,   -1.093446e+02,   -1.600000e+01,   -2.344925e+02
    8418,   -7.421308e+01,   -1.600000e+01,   -2.334332e+02
    8419,   -3.762008e+01,   -1.600000e+01,   -2.329307e+02
    8420,   -2.159338e+02,   -1.600000e+01,   -1.930846e+01
    8421,   -1.976293e+01,   -1.600000e+01,   -2.166807e+02
    8422,   -2.374507e+01,   -1.600000e+01,   -1.821404e+02
    8423,   -3.730356e+01,   -1.600000e+01,   -1.419906e+02
    8424,   -1.318990e+02,   -8.000000e+00,   -9.894454e+01
    8425,   -7.460712e+01,   -8.000000e+00,   -1.314812e+02
    8426,   -1.039130e+02,   -8.000000e+00,   -1.521965e+02
    8427,   -1.378445e+02,   -8.000000e+00,   -1.334891e+02
    8428,   -1.394960e+02,   -8.000000e+00,   -5.325721e+01
    8429,   -1.783295e+02,   -8.000000e+00,   -4.331821e+01
    8430,   -1.743402e+02,   -8.000000e+00,   -8.449678e+01
    8431,   -1.744260e+02,   -8.000000e+00,   -1.209699e+02
    8432,   -1.218073e+02,   -8.000000e+00,   -1.676800e+02
    8433,   -1.455735e+02,   -8.000000e+00,   -1.611071e+02
    8434,   -1.162877e+02,   -8.000000e+00,   -1.900174e+02
    8435,   -1.463455e+02,   -8.000000e+00,   -1.888011e+02
    8436,   -8.686404e+01,   -8.000000e+00,   -1.836139e+02
    8437,   -1.778796e+02,   -8.000000e+00,   -1.536348e+02
    8438,   -1.115463e+02,   -8.000000e+00,   -2.189851e+02
    8439,   -1.448988e+02,   -8.000000e+00,   -2.188785e+02
    8440,   -7.699760e+01,   -8.000000e+00,   -2.168664e+02
    8441,   -1.798407e+02,   -8.000000e+00,   -1.851685e+02
    8442,   -1.796782e+02,   -8.000000e+00,   -2.174912e+02
    8443,   -2.109599e+02,   -8.000000e+00,   -1.125271e+02
    8444,   -2.122614e+02,   -8.000000e+00,   -7.650898e+01
    8445,   -2.133939e+02,   -8.000000e+00,   -1.474125e+02
    8446,   -2.147047e+02,   -8.000000e+00,   -1.817097e+02
    8447,   -2.147166e+02,   -8.000000e+00,   -2.158933e+02
    8448,   -4.749014e+01,   -8.000000e+00,   -1.792809e+02
    8449,   -3.952587e+01,   -8.000000e+00,   -2.158615e+02
    8450,   -2.143675e+02,   -8.000000e+00,   -3.861692e+01
    8451,   -8.250000e+00,   -2.400000e+02,    0.000000e+00
    8452,   -2.750000e+00,   -2.400000e+02,    0.000000e+00
    8453,   -4.209518e+00,   -2.400000e+02,   -1.016267e+01
    8454,   -1.016267e+01,   -2.400000e+02,   -4.209518e+00
    8455,   -2.213029e+00,   -2.400000e+02,   -4.963029e+00
    8456,   -4.963029e+00,   -2.400000e+02,   -2.213029e+00
    8457,   -6.102116e+00,   -2.400000e+02,   -6.102116e+00
    8458,   -2.750000e+00,   -8.000000e+01,    0.000000e+00
    8459,   -8.250000e+00,   -8.000000e+01,    0.000000e+00
    8460,   -1.100000e+01,   -8.727273e+01,    4.453261e-15
    8461,   -1.100000e+01,   -1.018182e+02,    3.562609e-15
    8462,   -1.100000e+01,   -1.163636e+02,    2.671957e-15
    8463,   -1.100000e+01,   -1.309091e+02,    1.781304e-15
    8464,   -1.100000e+01,   -1.454545e+02,    8.906522e-16
    8465,   -1.100000e+01,   -1.600000e+02,    1.663737e-63
    8466,   -1.100000e+01,   -1.745455e+02,   -8.906522e-16
    8467,   -1.100000e+01,   -1.890909e+02,   -1.781304e-15
    8468,   -1.100000e+01,   -2.036364e+02,   -2.671957e-15
    8469,   -1.100000e+01,   -2.181818e+02,   -3.562609e-15
    8470,   -1.100000e+01,   -2.327273e+02,   -4.453261e-15
    8471,   -2.750000e+00,   -2.254545e+02,    0.000000e+00
    8472,   -5.500000e+00,   -2.327273e+02,    0.000000e+00
    8473,   -2.750000e+00,   -2.109091e+02,    0.000000e+00
    8474,   -5.500000e+00,   -2.181818e+02,    0.000000e+00
    8475,   -2.750000e+00,   -1.963636e+02,    0.000000e+00
    8476,   -5.500000e+00,   -2.036364e+02,    0.000000e+00
    8477,   -2.750000e+00,   -1.818182e+02,    0.000000e+00
    8478,   -5.500000e+00,   -1.890909e+02,    0.000000e+00
    8479,   -2.750000e+00,   -1.672727e+02,    0.000000e+00
    8480,   -5.500000e+00,   -1.745455e+02,    0.000000e+00
    8481,   -2.750000e+00,   -1.527273e+02,    0.000000e+00
    8482,   -5.500000e+00,   -1.600000e+02,    0.000000e+00
    8483,   -2.750000e+00,   -1.381818e+02,    0.000000e+00
    8484,   -5.500000e+00,   -1.454545e+02,    0.000000e+00
    8485,   -2.750000e+00,   -1.236364e+02,    0.000000e+00
    8486,   -5.500000e+00,   -1.309091e+02,    0.000000e+00
    8487,   -2.750000e+00,   -1.090909e+02,    0.000000e+00
    8488,   -5.500000e+00,   -1.163636e+02,    0.000000e+00
    8489,   -2.750000e+00,   -9.454545e+01,    0.000000e+00
    8490,   -5.500000e+00,   -1.018182e+02,    0.000000e+00
    8491,   -5.500000e+00,   -8.727273e+01,    0.000000e+00
    8492,   -8.250000e+00,   -2.254545e+02,    0.000000e+00
    8493,   -8.250000e+00,   -2.109091e+02,    0.000000e+00
    8494,   -8.250000e+00,   -1.963636e+02,    0.000000e+00
    8495,   -8.250000e+00,   -1.818182e+02,    0.000000e+00
    8496,   -8.250000e+00,   -1.672727e+02,    0.000000e+00
    8497,   -8.250000e+00,   -1.527273e+02,    0.000000e+00
    8498,   -8.250000e+00,   -1.381818e+02,    0.000000e+00
    8499,   -8.250000e+00,   -1.236364e+02,    0.000000e+00
    8500,   -8.250000e+00,   -1.090909e+02,    0.000000e+00
    8501,   -8.250000e+00,   -9.454545e+01,    0.000000e+00
    8502,   -1.016267e+01,   -8.000000e+01,   -4.209518e+00
    8503,   -4.209518e+00,   -8.000000e+01,   -1.016267e+01
    8504,   -4.209518e+00,   -9.454545e+01,   -1.016267e+01
    8505,   -7.778175e+00,   -8.727273e+01,   -7.778175e+00
    8506,   -4.209518e+00,   -1.090909e+02,   -1.016267e+01
    8507,   -7.778175e+00,   -1.018182e+02,   -7.778175e+00
    8508,   -4.209518e+00,   -1.236364e+02,   -1.016267e+01
    8509,   -7.778175e+00,   -1.163636e+02,   -7.778175e+00
    8510,   -4.209518e+00,   -1.381818e+02,   -1.016267e+01
    8511,   -7.778175e+00,   -1.309091e+02,   -7.778175e+00
    8512,   -4.209518e+00,   -1.527273e+02,   -1.016267e+01
    8513,   -7.778175e+00,   -1.454545e+02,   -7.778175e+00
    8514,   -4.209518e+00,   -1.672727e+02,   -1.016267e+01
    8515,   -7.778175e+00,   -1.600000e+02,   -7.778175e+00
    8516,   -4.209518e+00,   -1.818182e+02,   -1.016267e+01
    8517,   -7.778175e+00,   -1.745455e+02,   -7.778175e+00
    8518,   -4.209518e+00,   -1.963636e+02,   -1.016267e+01
    8519,   -7.778175e+00,   -1.890909e+02,   -7.778175e+00
    8520,   -4.209518e+00,   -2.109091e+02,   -1.016267e+01
    8521,   -7.778175e+00,   -2.036364e+02,   -7.778175e+00
    8522,   -4.209518e+00,   -2.254545e+02,   -1.016267e+01
    8523,   -7.778175e+00,   -2.181818e+02,   -7.778175e+00
    8524,   -7.778175e+00,   -2.327273e+02,   -7.778175e+00
    8525,   -1.016267e+01,   -9.454545e+01,   -4.209518e+00
    8526,   -1.016267e+01,   -1.090909e+02,   -4.209518e+00
    8527,   -1.016267e+01,   -1.236364e+02,   -4.209518e+00
    8528,   -1.016267e+01,   -1.381818e+02,   -4.209518e+00
    8529,   -1.016267e+01,   -1.527273e+02,   -4.209518e+00
    8530,   -1.016267e+01,   -1.672727e+02,   -4.209518e+00
    8531,   -1.016267e+01,   -1.818182e+02,   -4.209518e+00
    8532,   -1.016267e+01,   -1.963636e+02,   -4.209518e+00
    8533,   -1.016267e+01,   -2.109091e+02,   -4.209518e+00
    8534,   -1.016267e+01,   -2.254545e+02,   -4.209518e+00
    8535,   -4.963029e+00,   -8.000000e+01,   -2.213029e+00
    8536,   -6.102116e+00,   -8.000000e+01,   -6.102116e+00
    8537,   -2.213029e+00,   -8.000000e+01,   -4.963029e+00
    8538,   -6.102116e+00,   -2.254545e+02,   -6.102116e+00
    8539,   -4.963029e+00,   -2.254545e+02,   -2.213029e+00
    8540,   -4.426058e+00,   -2.327273e+02,   -4.426058e+00
    8541,   -2.213029e+00,   -2.254545e+02,   -4.963029e+00
    8542,   -6.102116e+00,   -2.109091e+02,   -6.102116e+00
    8543,   -4.963029e+00,   -2.109091e+02,   -2.213029e+00
    8544,   -4.426058e+00,   -2.181818e+02,   -4.426058e+00
    8545,   -2.213029e+00,   -2.109091e+02,   -4.963029e+00
    8546,   -6.102116e+00,   -1.963636e+02,   -6.102116e+00
    8547,   -4.963029e+00,   -1.963636e+02,   -2.213029e+00
    8548,   -4.426058e+00,   -2.036364e+02,   -4.426058e+00
    8549,   -2.213029e+00,   -1.963636e+02,   -4.963029e+00
    8550,   -6.102116e+00,   -1.818182e+02,   -6.102116e+00
    8551,   -4.963029e+00,   -1.818182e+02,   -2.213029e+00
    8552,   -4.426058e+00,   -1.890909e+02,   -4.426058e+00
    8553,   -2.213029e+00,   -1.818182e+02,   -4.963029e+00
    8554,   -6.102116e+00,   -1.672727e+02,   -6.102116e+00
    8555,   -4.963029e+00,   -1.672727e+02,   -2.213029e+00
    8556,   -4.426058e+00,   -1.745455e+02,   -4.426058e+00
    8557,   -2.213029e+00,   -1.672727e+02,   -4.963029e+00
    8558,   -6.102116e+00,   -1.527273e+02,   -6.102116e+00
    8559,   -4.963029e+00,   -1.527273e+02,   -2.213029e+00
    8560,   -4.426058e+00,   -1.600000e+02,   -4.426058e+00
    8561,   -2.213029e+00,   -1.527273e+02,   -4.963029e+00
    8562,   -6.102116e+00,   -1.381818e+02,   -6.102116e+00
    8563,   -4.963029e+00,   -1.381818e+02,   -2.213029e+00
    8564,   -4.426058e+00,   -1.454545e+02,   -4.426058e+00
    8565,   -2.213029e+00,   -1.381818e+02,   -4.963029e+00
    8566,   -6.102116e+00,   -1.236364e+02,   -6.102116e+00
    8567,   -4.963029e+00,   -1.236364e+02,   -2.213029e+00
    8568,   -4.426058e+00,   -1.309091e+02,   -4.426058e+00
    8569,   -2.213029e+00,   -1.236364e+02,   -4.963029e+00
    8570,   -6.102116e+00,   -1.090909e+02,   -6.102116e+00
    8571,   -4.963029e+00,   -1.090909e+02,   -2.213029e+00
    8572,   -4.426058e+00,   -1.163636e+02,   -4.426058e+00
    8573,   -2.213029e+00,   -1.090909e+02,   -4.963029e+00
    8574,   -6.102116e+00,   -9.454545e+01,   -6.102116e+00
    8575,   -4.963029e+00,   -9.454545e+01,   -2.213029e+00
    8576,   -4.426058e+00,   -1.018182e+02,   -4.426058e+00
    8577,   -2.213029e+00,   -9.454545e+01,   -4.963029e+00
    8578,   -4.426058e+00,   -8.727273e+01,   -4.426058e+00
    8579,   -2.008333e+01,   -8.000000e+01,    0.000000e+00
    8580,   -3.825000e+01,   -8.000000e+01,    0.000000e+00
    8581,   -5.641667e+01,   -8.000000e+01,    0.000000e+00
    8582,   -7.458333e+01,   -8.000000e+01,    0.000000e+00
    8583,   -9.275000e+01,   -8.000000e+01,    0.000000e+00
    8584,   -1.109167e+02,   -8.000000e+01,    0.000000e+00
    8585,   -1.031197e+01,   -8.000000e+01,   -2.489531e+01
    8586,   -1.420106e+01,   -8.000000e+01,   -1.420106e+01
    8587,   -1.673486e+01,   -8.000000e+01,   -4.040153e+01
    8588,   -2.704683e+01,   -8.000000e+01,   -2.704683e+01
    8589,   -2.315775e+01,   -8.000000e+01,   -5.590775e+01
    8590,   -3.989261e+01,   -8.000000e+01,   -3.989261e+01
    8591,   -2.958063e+01,   -8.000000e+01,   -7.141397e+01
    8592,   -5.273838e+01,   -8.000000e+01,   -5.273838e+01
    8593,   -3.600352e+01,   -8.000000e+01,   -8.692019e+01
    8594,   -6.558415e+01,   -8.000000e+01,   -6.558415e+01
    8595,   -7.842993e+01,   -8.000000e+01,   -7.842993e+01
    8596,   -2.489531e+01,   -8.000000e+01,   -1.031197e+01
    8597,   -4.040153e+01,   -8.000000e+01,   -1.673486e+01
    8598,   -5.590775e+01,   -8.000000e+01,   -2.315775e+01
    8599,   -7.141397e+01,   -8.000000e+01,   -2.958063e+01
    8600,   -8.692019e+01,   -8.000000e+01,   -3.600352e+01
    8601,   -1.109167e+02,   -2.400000e+02,    0.000000e+00
    8602,   -9.275000e+01,   -2.400000e+02,    0.000000e+00
    8603,   -7.458333e+01,   -2.400000e+02,    0.000000e+00
    8604,   -5.641667e+01,   -2.400000e+02,    0.000000e+00
    8605,   -3.825000e+01,   -2.400000e+02,    0.000000e+00
    8606,   -2.008333e+01,   -2.400000e+02,    0.000000e+00
    8607,   -1.109167e+02,   -9.454545e+01,    0.000000e+00
    8608,   -1.018333e+02,   -8.727273e+01,    0.000000e+00
    8609,   -1.109167e+02,   -1.090909e+02,    0.000000e+00
    8610,   -1.018333e+02,   -1.018182e+02,    0.000000e+00
    8611,   -1.109167e+02,   -1.236364e+02,    0.000000e+00
    8612,   -1.018333e+02,   -1.163636e+02,    0.000000e+00
    8613,   -1.109167e+02,   -1.381818e+02,    0.000000e+00
    8614,   -1.018333e+02,   -1.309091e+02,    0.000000e+00
    8615,   -1.109167e+02,   -1.527273e+02,    0.000000e+00
    8616,   -1.018333e+02,   -1.454545e+02,    0.000000e+00
    8617,   -1.109167e+02,   -1.672727e+02,    0.000000e+00
    8618,   -1.018333e+02,   -1.600000e+02,    0.000000e+00
    8619,   -1.109167e+02,   -1.818182e+02,    0.000000e+00
    8620,   -1.018333e+02,   -1.745455e+02,    0.000000e+00
    8621,   -1.109167e+02,   -1.963636e+02,    0.000000e+00
    8622,   -1.018333e+02,   -1.890909e+02,    0.000000e+00
    8623,   -1.109167e+02,   -2.109091e+02,    0.000000e+00
    8624,   -1.018333e+02,   -2.036364e+02,    0.000000e+00
    8625,   -1.109167e+02,   -2.254545e+02,    0.000000e+00
    8626,   -1.018333e+02,   -2.181818e+02,    0.000000e+00
    8627,   -1.018333e+02,   -2.327273e+02,    0.000000e+00
    8628,   -9.275000e+01,   -9.454545e+01,    0.000000e+00
    8629,   -8.366667e+01,   -8.727273e+01,    0.000000e+00
    8630,   -9.275000e+01,   -1.090909e+02,    0.000000e+00
    8631,   -8.366667e+01,   -1.018182e+02,    0.000000e+00
    8632,   -9.275000e+01,   -1.236364e+02,    0.000000e+00
    8633,   -8.366667e+01,   -1.163636e+02,    0.000000e+00
    8634,   -9.275000e+01,   -1.381818e+02,    0.000000e+00
    8635,   -8.366667e+01,   -1.309091e+02,    0.000000e+00
    8636,   -9.275000e+01,   -1.527273e+02,    0.000000e+00
    8637,   -8.366667e+01,   -1.454545e+02,    0.000000e+00
    8638,   -9.275000e+01,   -1.672727e+02,    0.000000e+00
    8639,   -8.366667e+01,   -1.600000e+02,    0.000000e+00
    8640,   -9.275000e+01,   -1.818182e+02,    0.000000e+00
    8641,   -8.366667e+01,   -1.745455e+02,    0.000000e+00
    8642,   -9.275000e+01,   -1.963636e+02,    0.000000e+00
    8643,   -8.366667e+01,   -1.890909e+02,    0.000000e+00
    8644,   -9.275000e+01,   -2.109091e+02,    0.000000e+00
    8645,   -8.366667e+01,   -2.036364e+02,    0.000000e+00
    8646,   -9.275000e+01,   -2.254545e+02,    0.000000e+00
    8647,   -8.366667e+01,   -2.181818e+02,    0.000000e+00
    8648,   -8.366667e+01,   -2.327273e+02,    0.000000e+00
    8649,   -7.458333e+01,   -9.454545e+01,    0.000000e+00
    8650,   -6.550000e+01,   -8.727273e+01,    0.000000e+00
    8651,   -7.458333e+01,   -1.090909e+02,    0.000000e+00
    8652,   -6.550000e+01,   -1.018182e+02,    0.000000e+00
    8653,   -7.458333e+01,   -1.236364e+02,    0.000000e+00
    8654,   -6.550000e+01,   -1.163636e+02,    0.000000e+00
    8655,   -7.458333e+01,   -1.381818e+02,    0.000000e+00
    8656,   -6.550000e+01,   -1.309091e+02,    0.000000e+00
    8657,   -7.458333e+01,   -1.527273e+02,    0.000000e+00
    8658,   -6.550000e+01,   -1.454545e+02,    0.000000e+00
    8659,   -7.458333e+01,   -1.672727e+02,    0.000000e+00
    8660,   -6.550000e+01,   -1.600000e+02,    0.000000e+00
    8661,   -7.458333e+01,   -1.818182e+02,    0.000000e+00
    8662,   -6.550000e+01,   -1.745455e+02,    0.000000e+00
    8663,   -7.458333e+01,   -1.963636e+02,    0.000000e+00
    8664,   -6.550000e+01,   -1.890909e+02,    0.000000e+00
    8665,   -7.458333e+01,   -2.109091e+02,    0.000000e+00
    8666,   -6.550000e+01,   -2.036364e+02,    0.000000e+00
    8667,   -7.458333e+01,   -2.254545e+02,    0.000000e+00
    8668,   -6.550000e+01,   -2.181818e+02,    0.000000e+00
    8669,   -6.550000e+01,   -2.327273e+02,    0.000000e+00
    8670,   -5.641667e+01,   -9.454545e+01,    0.000000e+00
    8671,   -4.733333e+01,   -8.727273e+01,    0.000000e+00
    8672,   -5.641667e+01,   -1.090909e+02,    0.000000e+00
    8673,   -4.733333e+01,   -1.018182e+02,    0.000000e+00
    8674,   -5.641667e+01,   -1.236364e+02,    0.000000e+00
    8675,   -4.733333e+01,   -1.163636e+02,    0.000000e+00
    8676,   -5.641667e+01,   -1.381818e+02,    0.000000e+00
    8677,   -4.733333e+01,   -1.309091e+02,    0.000000e+00
    8678,   -5.641667e+01,   -1.527273e+02,    0.000000e+00
    8679,   -4.733333e+01,   -1.454545e+02,    0.000000e+00
    8680,   -5.641667e+01,   -1.672727e+02,    0.000000e+00
    8681,   -4.733333e+01,   -1.600000e+02,    0.000000e+00
    8682,   -5.641667e+01,   -1.818182e+02,    0.000000e+00
    8683,   -4.733333e+01,   -1.745455e+02,    0.000000e+00
    8684,   -5.641667e+01,   -1.963636e+02,    0.000000e+00
    8685,   -4.733333e+01,   -1.890909e+02,    0.000000e+00
    8686,   -5.641667e+01,   -2.109091e+02,    0.000000e+00
    8687,   -4.733333e+01,   -2.036364e+02,    0.000000e+00
    8688,   -5.641667e+01,   -2.254545e+02,    0.000000e+00
    8689,   -4.733333e+01,   -2.181818e+02,    0.000000e+00
    8690,   -4.733333e+01,   -2.327273e+02,    0.000000e+00
    8691,   -3.825000e+01,   -9.454545e+01,    0.000000e+00
    8692,   -2.916667e+01,   -8.727273e+01,    0.000000e+00
    8693,   -3.825000e+01,   -1.090909e+02,    0.000000e+00
    8694,   -2.916667e+01,   -1.018182e+02,    0.000000e+00
    8695,   -3.825000e+01,   -1.236364e+02,    0.000000e+00
    8696,   -2.916667e+01,   -1.163636e+02,    0.000000e+00
    8697,   -3.825000e+01,   -1.381818e+02,    0.000000e+00
    8698,   -2.916667e+01,   -1.309091e+02,    0.000000e+00
    8699,   -3.825000e+01,   -1.527273e+02,    0.000000e+00
    8700,   -2.916667e+01,   -1.454545e+02,    0.000000e+00
    8701,   -3.825000e+01,   -1.672727e+02,    0.000000e+00
    8702,   -2.916667e+01,   -1.600000e+02,    0.000000e+00
    8703,   -3.825000e+01,   -1.818182e+02,    0.000000e+00
    8704,   -2.916667e+01,   -1.745455e+02,    0.000000e+00
    8705,   -3.825000e+01,   -1.963636e+02,    0.000000e+00
    8706,   -2.916667e+01,   -1.890909e+02,    0.000000e+00
    8707,   -3.825000e+01,   -2.109091e+02,    0.000000e+00
    8708,   -2.916667e+01,   -2.036364e+02,    0.000000e+00
    8709,   -3.825000e+01,   -2.254545e+02,    0.000000e+00
    8710,   -2.916667e+01,   -2.181818e+02,    0.000000e+00
    8711,   -2.916667e+01,   -2.327273e+02,    0.000000e+00
    8712,   -2.008333e+01,   -9.454545e+01,    0.000000e+00
    8713,   -2.008333e+01,   -1.090909e+02,    0.000000e+00
    8714,   -2.008333e+01,   -1.236364e+02,    0.000000e+00
    8715,   -2.008333e+01,   -1.381818e+02,    0.000000e+00
    8716,   -2.008333e+01,   -1.527273e+02,    0.000000e+00
    8717,   -2.008333e+01,   -1.672727e+02,    0.000000e+00
    8718,   -2.008333e+01,   -1.818182e+02,    0.000000e+00
    8719,   -2.008333e+01,   -1.963636e+02,    0.000000e+00
    8720,   -2.008333e+01,   -2.109091e+02,    0.000000e+00
    8721,   -2.008333e+01,   -2.254545e+02,    0.000000e+00
    8722,   -3.600352e+01,   -2.400000e+02,   -8.692019e+01
    8723,   -7.842993e+01,   -2.400000e+02,   -7.842993e+01
    8724,   -2.958063e+01,   -2.400000e+02,   -7.141397e+01
    8725,   -6.558415e+01,   -2.400000e+02,   -6.558415e+01
    8726,   -2.315775e+01,   -2.400000e+02,   -5.590775e+01
    8727,   -5.273838e+01,   -2.400000e+02,   -5.273838e+01
    8728,   -1.673486e+01,   -2.400000e+02,   -4.040153e+01
    8729,   -3.989261e+01,   -2.400000e+02,   -3.989261e+01
    8730,   -1.031197e+01,   -2.400000e+02,   -2.489531e+01
    8731,   -2.704683e+01,   -2.400000e+02,   -2.704683e+01
    8732,   -1.420106e+01,   -2.400000e+02,   -1.420106e+01
    8733,   -8.692019e+01,   -2.400000e+02,   -3.600352e+01
    8734,   -7.141397e+01,   -2.400000e+02,   -2.958063e+01
    8735,   -5.590775e+01,   -2.400000e+02,   -2.315775e+01
    8736,   -4.040153e+01,   -2.400000e+02,   -1.673486e+01
    8737,   -2.489531e+01,   -2.400000e+02,   -1.031197e+01
    8738,   -8.692019e+01,   -9.454545e+01,   -3.600352e+01
    8739,   -7.200704e+01,   -8.727273e+01,   -7.200704e+01
    8740,   -7.842993e+01,   -9.454545e+01,   -7.842993e+01
    8741,   -7.141397e+01,   -9.454545e+01,   -2.958063e+01
    8742,   -5.916127e+01,   -8.727273e+01,   -5.916127e+01
    8743,   -6.558415e+01,   -9.454545e+01,   -6.558415e+01
    8744,   -5.590775e+01,   -9.454545e+01,   -2.315775e+01
    8745,   -4.631549e+01,   -8.727273e+01,   -4.631549e+01
    8746,   -5.273838e+01,   -9.454545e+01,   -5.273838e+01
    8747,   -4.040153e+01,   -9.454545e+01,   -1.673486e+01
    8748,   -3.346972e+01,   -8.727273e+01,   -3.346972e+01
    8749,   -3.989261e+01,   -9.454545e+01,   -3.989261e+01
    8750,   -2.489531e+01,   -9.454545e+01,   -1.031197e+01
    8751,   -2.062395e+01,   -8.727273e+01,   -2.062395e+01
    8752,   -2.704683e+01,   -9.454545e+01,   -2.704683e+01
    8753,   -1.420106e+01,   -9.454545e+01,   -1.420106e+01
    8754,   -8.692019e+01,   -1.090909e+02,   -3.600352e+01
    8755,   -7.200704e+01,   -1.018182e+02,   -7.200704e+01
    8756,   -7.842993e+01,   -1.090909e+02,   -7.842993e+01
    8757,   -7.141397e+01,   -1.090909e+02,   -2.958063e+01
    8758,   -5.916127e+01,   -1.018182e+02,   -5.916127e+01
    8759,   -6.558415e+01,   -1.090909e+02,   -6.558415e+01
    8760,   -5.590775e+01,   -1.090909e+02,   -2.315775e+01
    8761,   -4.631549e+01,   -1.018182e+02,   -4.631549e+01
    8762,   -5.273838e+01,   -1.090909e+02,   -5.273838e+01
    8763,   -4.040153e+01,   -1.090909e+02,   -1.673486e+01
    8764,   -3.346972e+01,   -1.018182e+02,   -3.346972e+01
    8765,   -3.989261e+01,   -1.090909e+02,   -3.989261e+01
    8766,   -2.489531e+01,   -1.090909e+02,   -1.031197e+01
    8767,   -2.062395e+01,   -1.018182e+02,   -2.062395e+01
    8768,   -2.704683e+01,   -1.090909e+02,   -2.704683e+01
    8769,   -1.420106e+01,   -1.090909e+02,   -1.420106e+01
    8770,   -8.692019e+01,   -1.236364e+02,   -3.600352e+01
    8771,   -7.200704e+01,   -1.163636e+02,   -7.200704e+01
    8772,   -7.842993e+01,   -1.236364e+02,   -7.842993e+01
    8773,   -7.141397e+01,   -1.236364e+02,   -2.958063e+01
    8774,   -5.916127e+01,   -1.163636e+02,   -5.916127e+01
    8775,   -6.558415e+01,   -1.236364e+02,   -6.558415e+01
    8776,   -5.590775e+01,   -1.236364e+02,   -2.315775e+01
    8777,   -4.631549e+01,   -1.163636e+02,   -4.631549e+01
    8778,   -5.273838e+01,   -1.236364e+02,   -5.273838e+01
    8779,   -4.040153e+01,   -1.236364e+02,   -1.673486e+01
    8780,   -3.346972e+01,   -1.163636e+02,   -3.346972e+01
    8781,   -3.989261e+01,   -1.236364e+02,   -3.989261e+01
    8782,   -2.489531e+01,   -1.236364e+02,   -1.031197e+01
    8783,   -2.062395e+01,   -1.163636e+02,   -2.062395e+01
    8784,   -2.704683e+01,   -1.236364e+02,   -2.704683e+01
    8785,   -1.420106e+01,   -1.236364e+02,   -1.420106e+01
    8786,   -8.692019e+01,   -1.381818e+02,   -3.600352e+01
    8787,   -7.200704e+01,   -1.309091e+02,   -7.200704e+01
    8788,   -7.842993e+01,   -1.381818e+02,   -7.842993e+01
    8789,   -7.141397e+01,   -1.381818e+02,   -2.958063e+01
    8790,   -5.916127e+01,   -1.309091e+02,   -5.916127e+01
    8791,   -6.558415e+01,   -1.381818e+02,   -6.558415e+01
    8792,   -5.590775e+01,   -1.381818e+02,   -2.315775e+01
    8793,   -4.631549e+01,   -1.309091e+02,   -4.631549e+01
    8794,   -5.273838e+01,   -1.381818e+02,   -5.273838e+01
    8795,   -4.040153e+01,   -1.381818e+02,   -1.673486e+01
    8796,   -3.346972e+01,   -1.309091e+02,   -3.346972e+01
    8797,   -3.989261e+01,   -1.381818e+02,   -3.989261e+01
    8798,   -2.489531e+01,   -1.381818e+02,   -1.031197e+01
    8799,   -2.062395e+01,   -1.309091e+02,   -2.062395e+01
    8800,   -2.704683e+01,   -1.381818e+02,   -2.704683e+01
    8801,   -1.420106e+01,   -1.381818e+02,   -1.420106e+01
    8802,   -8.692019e+01,   -1.527273e+02,   -3.600352e+01
    8803,   -7.200704e+01,   -1.454545e+02,   -7.200704e+01
    8804,   -7.842993e+01,   -1.527273e+02,   -7.842993e+01
    8805,   -7.141397e+01,   -1.527273e+02,   -2.958063e+01
    8806,   -5.916127e+01,   -1.454545e+02,   -5.916127e+01
    8807,   -6.558415e+01,   -1.527273e+02,   -6.558415e+01
    8808,   -5.590775e+01,   -1.527273e+02,   -2.315775e+01
    8809,   -4.631549e+01,   -1.454545e+02,   -4.631549e+01
    8810,   -5.273838e+01,   -1.527273e+02,   -5.273838e+01
    8811,   -4.040153e+01,   -1.527273e+02,   -1.673486e+01
    8812,   -3.346972e+01,   -1.454545e+02,   -3.346972e+01
    8813,   -3.989261e+01,   -1.527273e+02,   -3.989261e+01
    8814,   -2.489531e+01,   -1.527273e+02,   -1.031197e+01
    8815,   -2.062395e+01,   -1.454545e+02,   -2.062395e+01
    8816,   -2.704683e+01,   -1.527273e+02,   -2.704683e+01
    8817,   -1.420106e+01,   -1.527273e+02,   -1.420106e+01
    8818,   -8.692019e+01,   -1.672727e+02,   -3.600352e+01
    8819,   -7.200704e+01,   -1.600000e+02,   -7.200704e+01
    8820,   -7.842993e+01,   -1.672727e+02,   -7.842993e+01
    8821,   -7.141397e+01,   -1.672727e+02,   -2.958063e+01
    8822,   -5.916127e+01,   -1.600000e+02,   -5.916127e+01
    8823,   -6.558415e+01,   -1.672727e+02,   -6.558415e+01
    8824,   -5.590775e+01,   -1.672727e+02,   -2.315775e+01
    8825,   -4.631549e+01,   -1.600000e+02,   -4.631549e+01
    8826,   -5.273838e+01,   -1.672727e+02,   -5.273838e+01
    8827,   -4.040153e+01,   -1.672727e+02,   -1.673486e+01
    8828,   -3.346972e+01,   -1.600000e+02,   -3.346972e+01
    8829,   -3.989261e+01,   -1.672727e+02,   -3.989261e+01
    8830,   -2.489531e+01,   -1.672727e+02,   -1.031197e+01
    8831,   -2.062395e+01,   -1.600000e+02,   -2.062395e+01
    8832,   -2.704683e+01,   -1.672727e+02,   -2.704683e+01
    8833,   -1.420106e+01,   -1.672727e+02,   -1.420106e+01
    8834,   -8.692019e+01,   -1.818182e+02,   -3.600352e+01
    8835,   -7.200704e+01,   -1.745455e+02,   -7.200704e+01
    8836,   -7.842993e+01,   -1.818182e+02,   -7.842993e+01
    8837,   -7.141397e+01,   -1.818182e+02,   -2.958063e+01
    8838,   -5.916127e+01,   -1.745455e+02,   -5.916127e+01
    8839,   -6.558415e+01,   -1.818182e+02,   -6.558415e+01
    8840,   -5.590775e+01,   -1.818182e+02,   -2.315775e+01
    8841,   -4.631549e+01,   -1.745455e+02,   -4.631549e+01
    8842,   -5.273838e+01,   -1.818182e+02,   -5.273838e+01
    8843,   -4.040153e+01,   -1.818182e+02,   -1.673486e+01
    8844,   -3.346972e+01,   -1.745455e+02,   -3.346972e+01
    8845,   -3.989261e+01,   -1.818182e+02,   -3.989261e+01
    8846,   -2.489531e+01,   -1.818182e+02,   -1.031197e+01
    8847,   -2.062395e+01,   -1.745455e+02,   -2.062395e+01
    8848,   -2.704683e+01,   -1.818182e+02,   -2.704683e+01
    8849,   -1.420106e+01,   -1.818182e+02,   -1.420106e+01
    8850,   -8.692019e+01,   -1.963636e+02,   -3.600352e+01
    8851,   -7.200704e+01,   -1.890909e+02,   -7.200704e+01
    8852,   -7.842993e+01,   -1.963636e+02,   -7.842993e+01
    8853,   -7.141397e+01,   -1.963636e+02,   -2.958063e+01
    8854,   -5.916127e+01,   -1.890909e+02,   -5.916127e+01
    8855,   -6.558415e+01,   -1.963636e+02,   -6.558415e+01
    8856,   -5.590775e+01,   -1.963636e+02,   -2.315775e+01
    8857,   -4.631549e+01,   -1.890909e+02,   -4.631549e+01
    8858,   -5.273838e+01,   -1.963636e+02,   -5.273838e+01
    8859,   -4.040153e+01,   -1.963636e+02,   -1.673486e+01
    8860,   -3.346972e+01,   -1.890909e+02,   -3.346972e+01
    8861,   -3.989261e+01,   -1.963636e+02,   -3.989261e+01
    8862,   -2.489531e+01,   -1.963636e+02,   -1.031197e+01
    8863,   -2.062395e+01,   -1.890909e+02,   -2.062395e+01
    8864,   -2.704683e+01,   -1.963636e+02,   -2.704683e+01
    8865,   -1.420106e+01,   -1.963636e+02,   -1.420106e+01
    8866,   -8.692019e+01,   -2.109091e+02,   -3.600352e+01
    8867,   -7.200704e+01,   -2.036364e+02,   -7.200704e+01
    8868,   -7.842993e+01,   -2.109091e+02,   -7.842993e+01
    8869,   -7.141397e+01,   -2.109091e+02,   -2.958063e+01
    8870,   -5.916127e+01,   -2.036364e+02,   -5.916127e+01
    8871,   -6.558415e+01,   -2.109091e+02,   -6.558415e+01
    8872,   -5.590775e+01,   -2.109091e+02,   -2.315775e+01
    8873,   -4.631549e+01,   -2.036364e+02,   -4.631549e+01
    8874,   -5.273838e+01,   -2.109091e+02,   -5.273838e+01
    8875,   -4.040153e+01,   -2.109091e+02,   -1.673486e+01
    8876,   -3.346972e+01,   -2.036364e+02,   -3.346972e+01
    8877,   -3.989261e+01,   -2.109091e+02,   -3.989261e+01
    8878,   -2.489531e+01,   -2.109091e+02,   -1.031197e+01
    8879,   -2.062395e+01,   -2.036364e+02,   -2.062395e+01
    8880,   -2.704683e+01,   -2.109091e+02,   -2.704683e+01
    8881,   -1.420106e+01,   -2.109091e+02,   -1.420106e+01
    8882,   -8.692019e+01,   -2.254545e+02,   -3.600352e+01
    8883,   -7.200704e+01,   -2.181818e+02,   -7.200704e+01
    8884,   -7.842993e+01,   -2.254545e+02,   -7.842993e+01
    8885,   -7.141397e+01,   -2.254545e+02,   -2.958063e+01
    8886,   -5.916127e+01,   -2.181818e+02,   -5.916127e+01
    8887,   -6.558415e+01,   -2.254545e+02,   -6.558415e+01
    8888,   -5.590775e+01,   -2.254545e+02,   -2.315775e+01
    8889,   -4.631549e+01,   -2.181818e+02,   -4.631549e+01
    8890,   -5.273838e+01,   -2.254545e+02,   -5.273838e+01
    8891,   -4.040153e+01,   -2.254545e+02,   -1.673486e+01
    8892,   -3.346972e+01,   -2.181818e+02,   -3.346972e+01
    8893,   -3.989261e+01,   -2.254545e+02,   -3.989261e+01
    8894,   -2.489531e+01,   -2.254545e+02,   -1.031197e+01
    8895,   -2.062395e+01,   -2.181818e+02,   -2.062395e+01
    8896,   -2.704683e+01,   -2.254545e+02,   -2.704683e+01
    8897,   -1.420106e+01,   -2.254545e+02,   -1.420106e+01
    8898,   -7.200704e+01,   -2.327273e+02,   -7.200704e+01
    8899,   -5.916127e+01,   -2.327273e+02,   -5.916127e+01
    8900,   -4.631549e+01,   -2.327273e+02,   -4.631549e+01
    8901,   -3.346972e+01,   -2.327273e+02,   -3.346972e+01
    8902,   -2.062395e+01,   -2.327273e+02,   -2.062395e+01
    8903,   -3.600352e+01,   -9.454545e+01,   -8.692019e+01
    8904,   -2.958063e+01,   -9.454545e+01,   -7.141397e+01
    8905,   -2.315775e+01,   -9.454545e+01,   -5.590775e+01
    8906,   -1.673486e+01,   -9.454545e+01,   -4.040153e+01
    8907,   -1.031197e+01,   -9.454545e+01,   -2.489531e+01
    8908,   -3.600352e+01,   -1.090909e+02,   -8.692019e+01
    8909,   -2.958063e+01,   -1.090909e+02,   -7.141397e+01
    8910,   -2.315775e+01,   -1.090909e+02,   -5.590775e+01
    8911,   -1.673486e+01,   -1.090909e+02,   -4.040153e+01
    8912,   -1.031197e+01,   -1.090909e+02,   -2.489531e+01
    8913,   -3.600352e+01,   -1.236364e+02,   -8.692019e+01
    8914,   -2.958063e+01,   -1.236364e+02,   -7.141397e+01
    8915,   -2.315775e+01,   -1.236364e+02,   -5.590775e+01
    8916,   -1.673486e+01,   -1.236364e+02,   -4.040153e+01
    8917,   -1.031197e+01,   -1.236364e+02,   -2.489531e+01
    8918,   -3.600352e+01,   -1.381818e+02,   -8.692019e+01
    8919,   -2.958063e+01,   -1.381818e+02,   -7.141397e+01
    8920,   -2.315775e+01,   -1.381818e+02,   -5.590775e+01
    8921,   -1.673486e+01,   -1.381818e+02,   -4.040153e+01
    8922,   -1.031197e+01,   -1.381818e+02,   -2.489531e+01
    8923,   -3.600352e+01,   -1.527273e+02,   -8.692019e+01
    8924,   -2.958063e+01,   -1.527273e+02,   -7.141397e+01
    8925,   -2.315775e+01,   -1.527273e+02,   -5.590775e+01
    8926,   -1.673486e+01,   -1.527273e+02,   -4.040153e+01
    8927,   -1.031197e+01,   -1.527273e+02,   -2.489531e+01
    8928,   -3.600352e+01,   -1.672727e+02,   -8.692019e+01
    8929,   -2.958063e+01,   -1.672727e+02,   -7.141397e+01
    8930,   -2.315775e+01,   -1.672727e+02,   -5.590775e+01
    8931,   -1.673486e+01,   -1.672727e+02,   -4.040153e+01
    8932,   -1.031197e+01,   -1.672727e+02,   -2.489531e+01
    8933,   -3.600352e+01,   -1.818182e+02,   -8.692019e+01
    8934,   -2.958063e+01,   -1.818182e+02,   -7.141397e+01
    8935,   -2.315775e+01,   -1.818182e+02,   -5.590775e+01
    8936,   -1.673486e+01,   -1.818182e+02,   -4.040153e+01
    8937,   -1.031197e+01,   -1.818182e+02,   -2.489531e+01
    8938,   -3.600352e+01,   -1.963636e+02,   -8.692019e+01
    8939,   -2.958063e+01,   -1.963636e+02,   -7.141397e+01
    8940,   -2.315775e+01,   -1.963636e+02,   -5.590775e+01
    8941,   -1.673486e+01,   -1.963636e+02,   -4.040153e+01
    8942,   -1.031197e+01,   -1.963636e+02,   -2.489531e+01
    8943,   -3.600352e+01,   -2.109091e+02,   -8.692019e+01
    8944,   -2.958063e+01,   -2.109091e+02,   -7.141397e+01
    8945,   -2.315775e+01,   -2.109091e+02,   -5.590775e+01
    8946,   -1.673486e+01,   -2.109091e+02,   -4.040153e+01
    8947,   -1.031197e+01,   -2.109091e+02,   -2.489531e+01
    8948,   -3.600352e+01,   -2.254545e+02,   -8.692019e+01
    8949,   -2.958063e+01,   -2.254545e+02,   -7.141397e+01
    8950,   -2.315775e+01,   -2.254545e+02,   -5.590775e+01
    8951,   -1.673486e+01,   -2.254545e+02,   -4.040153e+01
    8952,   -1.031197e+01,   -2.254545e+02,   -2.489531e+01
    8953,   -1.016267e+01,    0.000000e+00,   -4.209518e+00
    8954,   -4.209518e+00,    0.000000e+00,   -1.016267e+01
    8955,   -1.100000e+01,   -7.200000e+01,    1.959435e-15
    8956,   -1.100000e+01,   -5.600000e+01,    9.797174e-16
    8957,   -1.100000e+01,   -4.000000e+01,    0.000000e+00
    8958,   -1.100000e+01,   -2.400000e+01,   -9.797174e-16
    8959,   -1.100000e+01,   -8.000000e+00,   -1.959435e-15
    8960,   -4.209518e+00,   -6.400000e+01,   -1.016267e+01
    8961,   -7.778175e+00,   -7.200000e+01,   -7.778175e+00
    8962,   -4.209518e+00,   -4.800000e+01,   -1.016267e+01
    8963,   -7.778175e+00,   -5.600000e+01,   -7.778175e+00
    8964,   -4.209518e+00,   -3.200000e+01,   -1.016267e+01
    8965,   -7.778175e+00,   -4.000000e+01,   -7.778175e+00
    8966,   -4.209518e+00,   -1.600000e+01,   -1.016267e+01
    8967,   -7.778175e+00,   -2.400000e+01,   -7.778175e+00
    8968,   -7.778175e+00,   -8.000000e+00,   -7.778175e+00
    8969,   -1.016267e+01,   -6.400000e+01,   -4.209518e+00
    8970,   -1.016267e+01,   -4.800000e+01,   -4.209518e+00
    8971,   -1.016267e+01,   -3.200000e+01,   -4.209518e+00
    8972,   -1.016267e+01,   -1.600000e+01,   -4.209518e+00
    8973,   -2.008333e+01,    0.000000e+00,    0.000000e+00
    8974,   -3.825000e+01,    0.000000e+00,    0.000000e+00
    8975,   -5.641667e+01,    0.000000e+00,    0.000000e+00
    8976,   -7.458333e+01,    0.000000e+00,    0.000000e+00
    8977,   -9.275000e+01,    0.000000e+00,    0.000000e+00
    8978,   -1.109167e+02,    0.000000e+00,    0.000000e+00
    8979,   -1.031197e+01,    0.000000e+00,   -2.489531e+01
    8980,   -1.420106e+01,    0.000000e+00,   -1.420106e+01
    8981,   -1.673486e+01,    0.000000e+00,   -4.040153e+01
    8982,   -2.704683e+01,    0.000000e+00,   -2.704683e+01
    8983,   -2.315775e+01,    0.000000e+00,   -5.590775e+01
    8984,   -3.989261e+01,    0.000000e+00,   -3.989261e+01
    8985,   -2.958063e+01,    0.000000e+00,   -7.141397e+01
    8986,   -5.273838e+01,    0.000000e+00,   -5.273838e+01
    8987,   -3.600352e+01,    0.000000e+00,   -8.692019e+01
    8988,   -6.558415e+01,    0.000000e+00,   -6.558415e+01
    8989,   -7.842993e+01,    0.000000e+00,   -7.842993e+01
    8990,   -2.489531e+01,    0.000000e+00,   -1.031197e+01
    8991,   -4.040153e+01,    0.000000e+00,   -1.673486e+01
    8992,   -5.590775e+01,    0.000000e+00,   -2.315775e+01
    8993,   -7.141397e+01,    0.000000e+00,   -2.958063e+01
    8994,   -8.692019e+01,    0.000000e+00,   -3.600352e+01
    8995,   -1.109167e+02,   -1.600000e+01,    0.000000e+00
    8996,   -1.018333e+02,   -8.000000e+00,    0.000000e+00
    8997,   -1.109167e+02,   -3.200000e+01,    0.000000e+00
    8998,   -1.018333e+02,   -2.400000e+01,    0.000000e+00
    8999,   -1.109167e+02,   -4.800000e+01,    0.000000e+00
    9000,   -1.018333e+02,   -4.000000e+01,    0.000000e+00
    9001,   -1.109167e+02,   -6.400000e+01,    0.000000e+00
    9002,   -1.018333e+02,   -5.600000e+01,    0.000000e+00
    9003,   -1.018333e+02,   -7.200000e+01,    0.000000e+00
    9004,   -9.275000e+01,   -1.600000e+01,    0.000000e+00
    9005,   -8.366667e+01,   -8.000000e+00,    0.000000e+00
    9006,   -9.275000e+01,   -3.200000e+01,    0.000000e+00
    9007,   -8.366667e+01,   -2.400000e+01,    0.000000e+00
    9008,   -9.275000e+01,   -4.800000e+01,    0.000000e+00
    9009,   -8.366667e+01,   -4.000000e+01,    0.000000e+00
    9010,   -9.275000e+01,   -6.400000e+01,    0.000000e+00
    9011,   -8.366667e+01,   -5.600000e+01,    0.000000e+00
    9012,   -8.366667e+01,   -7.200000e+01,    0.000000e+00
    9013,   -7.458333e+01,   -1.600000e+01,    0.000000e+00
    9014,   -6.550000e+01,   -8.000000e+00,    0.000000e+00
    9015,   -7.458333e+01,   -3.200000e+01,    0.000000e+00
    9016,   -6.550000e+01,   -2.400000e+01,    0.000000e+00
    9017,   -7.458333e+01,   -4.800000e+01,    0.000000e+00
    9018,   -6.550000e+01,   -4.000000e+01,    0.000000e+00
    9019,   -7.458333e+01,   -6.400000e+01,    0.000000e+00
    9020,   -6.550000e+01,   -5.600000e+01,    0.000000e+00
    9021,   -6.550000e+01,   -7.200000e+01,    0.000000e+00
    9022,   -5.641667e+01,   -1.600000e+01,    0.000000e+00
    9023,   -4.733333e+01,   -8.000000e+00,    0.000000e+00
    9024,   -5.641667e+01,   -3.200000e+01,    0.000000e+00
    9025,   -4.733333e+01,   -2.400000e+01,    0.000000e+00
    9026,   -5.641667e+01,   -4.800000e+01,    0.000000e+00
    9027,   -4.733333e+01,   -4.000000e+01,    0.000000e+00
    9028,   -5.641667e+01,   -6.400000e+01,    0.000000e+00
    9029,   -4.733333e+01,   -5.600000e+01,    0.000000e+00
    9030,   -4.733333e+01,   -7.200000e+01,    0.000000e+00
    9031,   -3.825000e+01,   -1.600000e+01,    0.000000e+00
    9032,   -2.916667e+01,   -8.000000e+00,    0.000000e+00
    9033,   -3.825000e+01,   -3.200000e+01,    0.000000e+00
    9034,   -2.916667e+01,   -2.400000e+01,    0.000000e+00
    9035,   -3.825000e+01,   -4.800000e+01,    0.000000e+00
    9036,   -2.916667e+01,   -4.000000e+01,    0.000000e+00
    9037,   -3.825000e+01,   -6.400000e+01,    0.000000e+00
    9038,   -2.916667e+01,   -5.600000e+01,    0.000000e+00
    9039,   -2.916667e+01,   -7.200000e+01,    0.000000e+00
    9040,   -2.008333e+01,   -1.600000e+01,    0.000000e+00
    9041,   -2.008333e+01,   -3.200000e+01,    0.000000e+00
    9042,   -2.008333e+01,   -4.800000e+01,    0.000000e+00
    9043,   -2.008333e+01,   -6.400000e+01,    0.000000e+00
    9044,   -8.692019e+01,   -1.600000e+01,   -3.600352e+01
    9045,   -7.200704e+01,   -8.000000e+00,   -7.200704e+01
    9046,   -7.842993e+01,   -1.600000e+01,   -7.842993e+01
    9047,   -7.141397e+01,   -1.600000e+01,   -2.958063e+01
    9048,   -5.916127e+01,   -8.000000e+00,   -5.916127e+01
    9049,   -6.558415e+01,   -1.600000e+01,   -6.558415e+01
    9050,   -5.590775e+01,   -1.600000e+01,   -2.315775e+01
    9051,   -4.631549e+01,   -8.000000e+00,   -4.631549e+01
    9052,   -5.273838e+01,   -1.600000e+01,   -5.273838e+01
    9053,   -4.040153e+01,   -1.600000e+01,   -1.673486e+01
    9054,   -3.346972e+01,   -8.000000e+00,   -3.346972e+01
    9055,   -3.989261e+01,   -1.600000e+01,   -3.989261e+01
    9056,   -2.489531e+01,   -1.600000e+01,   -1.031197e+01
    9057,   -2.062395e+01,   -8.000000e+00,   -2.062395e+01
    9058,   -2.704683e+01,   -1.600000e+01,   -2.704683e+01
    9059,   -1.420106e+01,   -1.600000e+01,   -1.420106e+01
    9060,   -8.692019e+01,   -3.200000e+01,   -3.600352e+01
    9061,   -7.200704e+01,   -2.400000e+01,   -7.200704e+01
    9062,   -7.842993e+01,   -3.200000e+01,   -7.842993e+01
    9063,   -7.141397e+01,   -3.200000e+01,   -2.958063e+01
    9064,   -5.916127e+01,   -2.400000e+01,   -5.916127e+01
    9065,   -6.558415e+01,   -3.200000e+01,   -6.558415e+01
    9066,   -5.590775e+01,   -3.200000e+01,   -2.315775e+01
    9067,   -4.631549e+01,   -2.400000e+01,   -4.631549e+01
    9068,   -5.273838e+01,   -3.200000e+01,   -5.273838e+01
    9069,   -4.040153e+01,   -3.200000e+01,   -1.673486e+01
    9070,   -3.346972e+01,   -2.400000e+01,   -3.346972e+01
    9071,   -3.989261e+01,   -3.200000e+01,   -3.989261e+01
    9072,   -2.489531e+01,   -3.200000e+01,   -1.031197e+01
    9073,   -2.062395e+01,   -2.400000e+01,   -2.062395e+01
    9074,   -2.704683e+01,   -3.200000e+01,   -2.704683e+01
    9075,   -1.420106e+01,   -3.200000e+01,   -1.420106e+01
    9076,   -8.692019e+01,   -4.800000e+01,   -3.600352e+01
    9077,   -7.200704e+01,   -4.000000e+01,   -7.200704e+01
    9078,   -7.842993e+01,   -4.800000e+01,   -7.842993e+01
    9079,   -7.141397e+01,   -4.800000e+01,   -2.958063e+01
    9080,   -5.916127e+01,   -4.000000e+01,   -5.916127e+01
    9081,   -6.558415e+01,   -4.800000e+01,   -6.558415e+01
    9082,   -5.590775e+01,   -4.800000e+01,   -2.315775e+01
    9083,   -4.631549e+01,   -4.000000e+01,   -4.631549e+01
    9084,   -5.273838e+01,   -4.800000e+01,   -5.273838e+01
    9085,   -4.040153e+01,   -4.800000e+01,   -1.673486e+01
    9086,   -3.346972e+01,   -4.000000e+01,   -3.346972e+01
    9087,   -3.989261e+01,   -4.800000e+01,   -3.989261e+01
    9088,   -2.489531e+01,   -4.800000e+01,   -1.031197e+01
    9089,   -2.062395e+01,   -4.000000e+01,   -2.062395e+01
    9090,   -2.704683e+01,   -4.800000e+01,   -2.704683e+01
    9091,   -1.420106e+01,   -4.800000e+01,   -1.420106e+01
    9092,   -8.692019e+01,   -6.400000e+01,   -3.600352e+01
    9093,   -7.200704e+01,   -5.600000e+01,   -7.200704e+01
    9094,   -7.842993e+01,   -6.400000e+01,   -7.842993e+01
    9095,   -7.141397e+01,   -6.400000e+01,   -2.958063e+01
    9096,   -5.916127e+01,   -5.600000e+01,   -5.916127e+01
    9097,   -6.558415e+01,   -6.400000e+01,   -6.558415e+01
    9098,   -5.590775e+01,   -6.400000e+01,   -2.315775e+01
    9099,   -4.631549e+01,   -5.600000e+01,   -4.631549e+01
    9100,   -5.273838e+01,   -6.400000e+01,   -5.273838e+01
    9101,   -4.040153e+01,   -6.400000e+01,   -1.673486e+01
    9102,   -3.346972e+01,   -5.600000e+01,   -3.346972e+01
    9103,   -3.989261e+01,   -6.400000e+01,   -3.989261e+01
    9104,   -2.489531e+01,   -6.400000e+01,   -1.031197e+01
    9105,   -2.062395e+01,   -5.600000e+01,   -2.062395e+01
    9106,   -2.704683e+01,   -6.400000e+01,   -2.704683e+01
    9107,   -1.420106e+01,   -6.400000e+01,   -1.420106e+01
    9108,   -7.200704e+01,   -7.200000e+01,   -7.200704e+01
    9109,   -5.916127e+01,   -7.200000e+01,   -5.916127e+01
    9110,   -4.631549e+01,   -7.200000e+01,   -4.631549e+01
    9111,   -3.346972e+01,   -7.200000e+01,   -3.346972e+01
    9112,   -2.062395e+01,   -7.200000e+01,   -2.062395e+01
    9113,   -3.600352e+01,   -1.600000e+01,   -8.692019e+01
    9114,   -2.958063e+01,   -1.600000e+01,   -7.141397e+01
    9115,   -2.315775e+01,   -1.600000e+01,   -5.590775e+01
    9116,   -1.673486e+01,   -1.600000e+01,   -4.040153e+01
    9117,   -1.031197e+01,   -1.600000e+01,   -2.489531e+01
    9118,   -3.600352e+01,   -3.200000e+01,   -8.692019e+01
    9119,   -2.958063e+01,   -3.200000e+01,   -7.141397e+01
    9120,   -2.315775e+01,   -3.200000e+01,   -5.590775e+01
    9121,   -1.673486e+01,   -3.200000e+01,   -4.040153e+01
    9122,   -1.031197e+01,   -3.200000e+01,   -2.489531e+01
    9123,   -3.600352e+01,   -4.800000e+01,   -8.692019e+01
    9124,   -2.958063e+01,   -4.800000e+01,   -7.141397e+01
    9125,   -2.315775e+01,   -4.800000e+01,   -5.590775e+01
    9126,   -1.673486e+01,   -4.800000e+01,   -4.040153e+01
    9127,   -1.031197e+01,   -4.800000e+01,   -2.489531e+01
    9128,   -3.600352e+01,   -6.400000e+01,   -8.692019e+01
    9129,   -2.958063e+01,   -6.400000e+01,   -7.141397e+01
    9130,   -2.315775e+01,   -6.400000e+01,   -5.590775e+01
    9131,   -1.673486e+01,   -6.400000e+01,   -4.040153e+01
    9132,   -1.031197e+01,   -6.400000e+01,   -2.489531e+01
********************************** E L E M E N T S ****************************
*ELEMENT, TYPE=GC3D20R, ELSET=concrete
     451,     560,     583,     580,     574,      26,      49,      47,      45,    3821,    3822,    3823,    3824,    3331,    3329,    3323,    3306,    3825,    3826,    3827,    3828
     452,     561,     582,     583,     560,      27,      48,      49,      26,    3829,    3830,    3821,    3831,    3330,    3328,    3331,    3277,    3832,    3833,    3826,    3825
     453,     362,     562,     582,     561,       7,      28,      48,      27,    3834,    3835,    3829,    3836,    3280,    3326,    3330,    3278,    3346,    3837,    3833,    3832
     454,     583,     576,     577,     580,      49,      41,      42,      47,    3838,    3839,    3840,    3822,    3327,    3313,    3319,    3329,    3826,    3841,    3842,    3827
     455,     582,     575,     576,     583,      48,      40,      41,      49,    3843,    3844,    3838,    3830,    3325,    3311,    3327,    3328,    3833,    3845,    3841,    3826
     456,     562,     563,     575,     582,      28,      29,      40,      48,    3846,    3847,    3843,    3835,    3282,    3309,    3325,    3326,    3837,    3848,    3845,    3833
     457,     581,     579,     567,     568,      34,      44,      33,      46,    3849,    3850,    3851,    3852,    3324,    3317,    3293,    3322,    3853,    3854,    3855,    3856
     458,     574,     580,     579,     581,      45,      47,      44,      34,    3823,    3857,    3849,    3858,    3323,    3320,    3324,    3321,    3828,    3827,    3854,    3853
     459,     569,     574,     581,     568,      35,      45,      34,      46,    3859,    3858,    3852,    3860,    3307,    3321,    3322,    3295,    3861,    3828,    3853,    3856
     460,     580,     577,     578,     579,      47,      42,      43,      44,    3840,    3862,    3863,    3857,    3319,    3315,    3318,    3320,    3827,    3842,    3864,    3854
     461,     566,     567,     579,     578,      32,      33,      44,      43,    3865,    3850,    3863,    3866,    3291,    3317,    3318,    3316,    3867,    3855,    3854,    3864
     462,     573,     565,     566,     578,      39,      31,      32,      43,    3868,    3869,    3866,    3870,    3305,    3289,    3316,    3314,    3871,    3872,    3867,    3864
     463,     572,     573,     578,     577,      38,      39,      43,      42,    3873,    3870,    3862,    3874,    3304,    3314,    3315,    3312,    3875,    3871,    3864,    3842
     464,     571,     572,     577,     576,      37,      38,      42,      41,    3876,    3874,    3839,    3877,    3302,    3312,    3313,    3310,    3878,    3875,    3842,    3841
     465,     570,     571,     576,     575,      36,      37,      41,      40,    3879,    3877,    3844,    3880,    3300,    3310,    3311,    3308,    3881,    3878,    3841,    3845
     466,     563,     564,     570,     575,      29,      30,      36,      40,    3882,    3883,    3880,    3847,    3284,    3298,    3308,    3309,    3848,    3884,    3881,    3845
     467,     559,     560,     574,     569,      25,      26,      45,      35,    3885,    3824,    3859,    3886,    3275,    3306,    3307,    3296,    3887,    3825,    3828,    3861
     468,     539,     549,     565,     573,      14,      13,      31,      39,    3790,    3888,    3868,    3889,    3259,    3287,    3305,    3303,    3770,    3791,    3872,    3871
     469,     529,     539,     573,     572,      15,      14,      39,      38,    3769,    3889,    3873,    3890,    3260,    3303,    3304,    3301,    3749,    3770,    3871,    3875
     470,     519,     529,     572,     571,      16,      15,      38,      37,    3748,    3890,    3876,    3891,    3261,    3301,    3302,    3299,    3728,    3749,    3875,    3878
     471,     509,     519,     571,     570,      17,      16,      37,      36,    3727,    3891,    3879,    3892,    3262,    3299,    3300,    3297,    3707,    3728,    3878,    3881
     472,     499,     509,     570,     564,      18,      17,      36,      30,    3706,    3892,    3883,    3893,    3263,    3297,    3298,    3285,    3686,    3707,    3881,    3884
     473,     452,     442,     559,     569,      20,      19,      25,      35,    3588,    3894,    3886,    3895,    3266,    3273,    3296,    3294,    3590,    3569,    3887,    3861
     474,     462,     452,     569,     568,      21,      20,      35,      46,    3609,    3895,    3860,    3896,    3267,    3294,    3295,    3292,    3611,    3590,    3861,    3856
     475,     472,     462,     568,     567,      22,      21,      46,      33,    3630,    3896,    3851,    3897,    3268,    3292,    3293,    3290,    3632,    3611,    3856,    3855
     476,     482,     472,     567,     566,      23,      22,      33,      32,    3651,    3897,    3865,    3898,    3269,    3290,    3291,    3288,    3653,    3632,    3855,    3867
     477,     492,     482,     566,     565,      24,      23,      32,      31,    3672,    3898,    3869,    3899,    3270,    3288,    3289,    3286,    3674,    3653,    3867,    3872
     478,     417,     492,     565,     549,      12,      24,      31,      13,    3684,    3899,    3888,    3811,    3271,    3286,    3287,    3258,    3538,    3674,    3872,    3791
     479,     406,     385,     499,     564,       9,       8,      18,      30,    3454,    3685,    3893,    3900,    3254,    3264,    3285,    3283,    3434,    3390,    3686,    3884
     480,     396,     406,     564,     563,      10,       9,      30,      29,    3433,    3900,    3882,    3901,    3255,    3283,    3284,    3281,    3413,    3434,    3884,    3848
     481,     386,     396,     563,     562,      11,      10,      29,      28,    3412,    3901,    3846,    3902,    3256,    3281,    3282,    3279,    3392,    3413,    3848,    3837
     482,     352,     386,     562,     362,       6,      11,      28,       7,    3391,    3902,    3834,    3366,    3257,    3279,    3280,    3253,    3334,    3392,    3837,    3346
     483,     349,     300,     362,     561,       5,       2,       7,      27,    3248,    3345,    3836,    3903,    3167,    3252,    3278,    3276,    3251,    3153,    3346,    3832
     484,     348,     349,     561,     560,       4,       5,      27,      26,    3247,    3903,    3831,    3904,    3166,    3276,    3277,    3274,    3250,    3251,    3832,    3825
     485,     347,     348,     560,     559,       3,       4,      26,      25,    3245,    3904,    3885,    3905,    3165,    3274,    3275,    3272,    3249,    3250,    3825,    3887
     486,     319,     347,     559,     442,       1,       3,      25,      19,    3243,    3905,    3894,    3567,    3164,    3272,    3273,    3265,    3178,    3249,    3887,    3569
     487,     585,     608,     605,     599,     560,     583,     580,     574,    3906,    3907,    3908,    3909,    3821,    3822,    3823,    3824,    3910,    3911,    3912,    3913
     488,     586,     607,     608,     585,     561,     582,     583,     560,    3914,    3915,    3906,    3916,    3829,    3830,    3821,    3831,    3917,    3918,    3911,    3910
     489,     363,     587,     607,     586,     362,     562,     582,     561,    3919,    3920,    3914,    3921,    3834,    3835,    3829,    3836,    3348,    3922,    3918,    3917
     490,     608,     601,     602,     605,     583,     576,     577,     580,    3923,    3924,    3925,    3907,    3838,    3839,    3840,    3822,    3911,    3926,    3927,    3912
     491,     607,     600,     601,     608,     582,     575,     576,     583,    3928,    3929,    3923,    3915,    3843,    3844,    3838,    3830,    3918,    3930,    3926,    3911
     492,     587,     588,     600,     607,     562,     563,     575,     582,    3931,    3932,    3928,    3920,    3846,    3847,    3843,    3835,    3922,    3933,    3930,    3918
     493,     606,     604,     592,     593,     581,     579,     567,     568,    3934,    3935,    3936,    3937,    3849,    3850,    3851,    3852,    3938,    3939,    3940,    3941
     494,     599,     605,     604,     606,     574,     580,     579,     581,    3908,    3942,    3934,    3943,    3823,    3857,    3849,    3858,    3913,    3912,    3939,    3938
     495,     594,     599,     606,     593,     569,     574,     581,     568,    3944,    3943,    3937,    3945,    3859,    3858,    3852,    3860,    3946,    3913,    3938,    3941
     496,     605,     602,     603,     604,     580,     577,     578,     579,    3925,    3947,    3948,    3942,    3840,    3862,    3863,    3857,    3912,    3927,    3949,    3939
     497,     591,     592,     604,     603,     566,     567,     579,     578,    3950,    3935,    3948,    3951,    3865,    3850,    3863,    3866,    3952,    3940,    3939,    3949
     498,     598,     590,     591,     603,     573,     565,     566,     578,    3953,    3954,    3951,    3955,    3868,    3869,    3866,    3870,    3956,    3957,    3952,    3949
     499,     597,     598,     603,     602,     572,     573,     578,     577,    3958,    3955,    3947,    3959,    3873,    3870,    3862,    3874,    3960,    3956,    3949,    3927
     500,     596,     597,     602,     601,     571,     572,     577,     576,    3961,    3959,    3924,    3962,    3876,    3874,    3839,    3877,    3963,    3960,    3927,    3926
     501,     595,     596,     601,     600,     570,     571,     576,     575,    3964,    3962,    3929,    3965,    3879,    3877,    3844,    3880,    3966,    3963,    3926,    3930
     502,     588,     589,     595,     600,     563,     564,     570,     575,    3967,    3968,    3965,    3932,    3882,    3883,    3880,    3847,    3933,    3969,    3966,    3930
     503,     584,     585,     599,     594,     559,     560,     574,     569,    3970,    3909,    3944,    3971,    3885,    3824,    3859,    3886,    3972,    3910,    3913,    3946
     504,     540,     550,     590,     598,     539,     549,     565,     573,    3792,    3973,    3953,    3974,    3790,    3888,    3868,    3889,    3772,    3793,    3957,    3956
     505,     530,     540,     598,     597,     529,     539,     573,     572,    3771,    3974,    3958,    3975,    3769,    3889,    3873,    3890,    3751,    3772,    3956,    3960
     506,     520,     530,     597,     596,     519,     529,     572,     571,    3750,    3975,    3961,    3976,    3748,    3890,    3876,    3891,    3730,    3751,    3960,    3963
     507,     510,     520,     596,     595,     509,     519,     571,     570,    3729,    3976,    3964,    3977,    3727,    3891,    3879,    3892,    3709,    3730,    3963,    3966
     508,     500,     510,     595,     589,     499,     509,     570,     564,    3708,    3977,    3968,    3978,    3706,    3892,    3883,    3893,    3688,    3709,    3966,    3969
     509,     451,     441,     584,     594,     452,     442,     559,     569,    3586,    3979,    3971,    3980,    3588,    3894,    3886,    3895,    3589,    3568,    3972,    3946
     510,     461,     451,     594,     593,     462,     452,     569,     568,    3607,    3980,    3945,    3981,    3609,    3895,    3860,    3896,    3610,    3589,    3946,    3941
     511,     471,     461,     593,     592,     472,     462,     568,     567,    3628,    3981,    3936,    3982,    3630,    3896,    3851,    3897,    3631,    3610,    3941,    3940
     512,     481,     471,     592,     591,     482,     472,     567,     566,    3649,    3982,    3950,    3983,    3651,    3897,    3865,    3898,    3652,    3631,    3940,    3952
     513,     491,     481,     591,     590,     492,     482,     566,     565,    3670,    3983,    3954,    3984,    3672,    3898,    3869,    3899,    3673,    3652,    3952,    3957
     514,     418,     491,     590,     550,     417,     492,     565,     549,    3683,    3984,    3973,    3812,    3684,    3899,    3888,    3811,    3539,    3673,    3957,    3793
     515,     407,     384,     500,     589,     406,     385,     499,     564,    3455,    3687,    3978,    3985,    3454,    3685,    3893,    3900,    3436,    3389,    3688,    3969
     516,     397,     407,     589,     588,     396,     406,     564,     563,    3435,    3985,    3967,    3986,    3433,    3900,    3882,    3901,    3415,    3436,    3969,    3933
     517,     387,     397,     588,     587,     386,     396,     563,     562,    3414,    3986,    3931,    3987,    3412,    3901,    3846,    3902,    3394,    3415,    3933,    3922
     518,     353,     387,     587,     363,     352,     386,     562,     362,    3393,    3987,    3919,    3367,    3391,    3902,    3834,    3366,    3335,    3394,    3922,    3348
     519,     346,     301,     363,     586,     349,     300,     362,     561,    3241,    3347,    3921,    3988,    3248,    3345,    3836,    3903,    3246,    3154,    3348,    3917
     520,     345,     346,     586,     585,     348,     349,     561,     560,    3240,    3988,    3916,    3989,    3247,    3903,    3831,    3904,    3244,    3246,    3917,    3910
     521,     344,     345,     585,     584,     347,     348,     560,     559,    3238,    3989,    3970,    3990,    3245,    3904,    3885,    3905,    3242,    3244,    3910,    3972
     522,     318,     344,     584,     441,     319,     347,     559,     442,    3236,    3990,    3979,    3565,    3243,    3905,    3894,    3567,    3177,    3242,    3972,    3568
     523,     610,     633,     630,     624,     585,     608,     605,     599,    3991,    3992,    3993,    3994,    3906,    3907,    3908,    3909,    3995,    3996,    3997,    3998
     524,     611,     632,     633,     610,     586,     607,     608,     585,    3999,    4000,    3991,    4001,    3914,    3915,    3906,    3916,    4002,    4003,    3996,    3995
     525,     364,     612,     632,     611,     363,     587,     607,     586,    4004,    4005,    3999,    4006,    3919,    3920,    3914,    3921,    3350,    4007,    4003,    4002
     526,     633,     626,     627,     630,     608,     601,     602,     605,    4008,    4009,    4010,    3992,    3923,    3924,    3925,    3907,    3996,    4011,    4012,    3997
     527,     632,     625,     626,     633,     607,     600,     601,     608,    4013,    4014,    4008,    4000,    3928,    3929,    3923,    3915,    4003,    4015,    4011,    3996
     528,     612,     613,     625,     632,     587,     588,     600,     607,    4016,    4017,    4013,    4005,    3931,    3932,    3928,    3920,    4007,    4018,    4015,    4003
     529,     631,     629,     617,     618,     606,     604,     592,     593,    4019,    4020,    4021,    4022,    3934,    3935,    3936,    3937,    4023,    4024,    4025,    4026
     530,     624,     630,     629,     631,     599,     605,     604,     606,    3993,    4027,    4019,    4028,    3908,    3942,    3934,    3943,    3998,    3997,    4024,    4023
     531,     619,     624,     631,     618,     594,     599,     606,     593,    4029,    4028,    4022,    4030,    3944,    3943,    3937,    3945,    4031,    3998,    4023,    4026
     532,     630,     627,     628,     629,     605,     602,     603,     604,    4010,    4032,    4033,    4027,    3925,    3947,    3948,    3942,    3997,    4012,    4034,    4024
     533,     616,     617,     629,     628,     591,     592,     604,     603,    4035,    4020,    4033,    4036,    3950,    3935,    3948,    3951,    4037,    4025,    4024,    4034
     534,     623,     615,     616,     628,     598,     590,     591,     603,    4038,    4039,    4036,    4040,    3953,    3954,    3951,    3955,    4041,    4042,    4037,    4034
     535,     622,     623,     628,     627,     597,     598,     603,     602,    4043,    4040,    4032,    4044,    3958,    3955,    3947,    3959,    4045,    4041,    4034,    4012
     536,     621,     622,     627,     626,     596,     597,     602,     601,    4046,    4044,    4009,    4047,    3961,    3959,    3924,    3962,    4048,    4045,    4012,    4011
     537,     620,     621,     626,     625,     595,     596,     601,     600,    4049,    4047,    4014,    4050,    3964,    3962,    3929,    3965,    4051,    4048,    4011,    4015
     538,     613,     614,     620,     625,     588,     589,     595,     600,    4052,    4053,    4050,    4017,    3967,    3968,    3965,    3932,    4018,    4054,    4051,    4015
     539,     609,     610,     624,     619,     584,     585,     599,     594,    4055,    3994,    4029,    4056,    3970,    3909,    3944,    3971,    4057,    3995,    3998,    4031
     540,     541,     551,     615,     623,     540,     550,     590,     598,    3794,    4058,    4038,    4059,    3792,    3973,    3953,    3974,    3774,    3795,    4042,    4041
     541,     531,     541,     623,     622,     530,     540,     598,     597,    3773,    4059,    4043,    4060,    3771,    3974,    3958,    3975,    3753,    3774,    4041,    4045
     542,     521,     531,     622,     621,     520,     530,     597,     596,    3752,    4060,    4046,    4061,    3750,    3975,    3961,    3976,    3732,    3753,    4045,    4048
     543,     511,     521,     621,     620,     510,     520,     596,     595,    3731,    4061,    4049,    4062,    3729,    3976,    3964,    3977,    3711,    3732,    4048,    4051
     544,     501,     511,     620,     614,     500,     510,     595,     589,    3710,    4062,    4053,    4063,    3708,    3977,    3968,    3978,    3690,    3711,    4051,    4054
     545,     450,     440,     609,     619,     451,     441,     584,     594,    3584,    4064,    4056,    4065,    3586,    3979,    3971,    3980,    3587,    3566,    4057,    4031
     546,     460,     450,     619,     618,     461,     451,     594,     593,    3605,    4065,    4030,    4066,    3607,    3980,    3945,    3981,    3608,    3587,    4031,    4026
     547,     470,     460,     618,     617,     471,     461,     593,     592,    3626,    4066,    4021,    4067,    3628,    3981,    3936,    3982,    3629,    3608,    4026,    4025
     548,     480,     470,     617,     616,     481,     471,     592,     591,    3647,    4067,    4035,    4068,    3649,    3982,    3950,    3983,    3650,    3629,    4025,    4037
     549,     490,     480,     616,     615,     491,     481,     591,     590,    3668,    4068,    4039,    4069,    3670,    3983,    3954,    3984,    3671,    3650,    4037,    4042
     550,     419,     490,     615,     551,     418,     491,     590,     550,    3682,    4069,    4058,    3813,    3683,    3984,    3973,    3812,    3540,    3671,    4042,    3795
     551,     408,     383,     501,     614,     407,     384,     500,     589,    3456,    3689,    4063,    4070,    3455,    3687,    3978,    3985,    3438,    3388,    3690,    4054
     552,     398,     408,     614,     613,     397,     407,     589,     588,    3437,    4070,    4052,    4071,    3435,    3985,    3967,    3986,    3417,    3438,    4054,    4018
     553,     388,     398,     613,     612,     387,     397,     588,     587,    3416,    4071,    4016,    4072,    3414,    3986,    3931,    3987,    3396,    3417,    4018,    4007
     554,     354,     388,     612,     364,     353,     387,     587,     363,    3395,    4072,    4004,    3368,    3393,    3987,    3919,    3367,    3336,    3396,    4007,    3350
     555,     343,     302,     364,     611,     346,     301,     363,     586,    3234,    3349,    4006,    4073,    3241,    3347,    3921,    3988,    3239,    3155,    3350,    4002
     556,     342,     343,     611,     610,     345,     346,     586,     585,    3233,    4073,    4001,    4074,    3240,    3988,    3916,    3989,    3237,    3239,    4002,    3995
     557,     341,     342,     610,     609,     344,     345,     585,     584,    3231,    4074,    4055,    4075,    3238,    3989,    3970,    3990,    3235,    3237,    3995,    4057
     558,     317,     341,     609,     440,     318,     344,     584,     441,    3229,    4075,    4064,    3563,    3236,    3990,    3979,    3565,    3176,    3235,    4057,    3566
     559,     635,     658,     655,     649,     610,     633,     630,     624,    4076,    4077,    4078,    4079,    3991,    3992,    3993,    3994,    4080,    4081,    4082,    4083
     560,     636,     657,     658,     635,     611,     632,     633,     610,    4084,    4085,    4076,    4086,    3999,    4000,    3991,    4001,    4087,    4088,    4081,    4080
     561,     365,     637,     657,     636,     364,     612,     632,     611,    4089,    4090,    4084,    4091,    4004,    4005,    3999,    4006,    3352,    4092,    4088,    4087
     562,     658,     651,     652,     655,     633,     626,     627,     630,    4093,    4094,    4095,    4077,    4008,    4009,    4010,    3992,    4081,    4096,    4097,    4082
     563,     657,     650,     651,     658,     632,     625,     626,     633,    4098,    4099,    4093,    4085,    4013,    4014,    4008,    4000,    4088,    4100,    4096,    4081
     564,     637,     638,     650,     657,     612,     613,     625,     632,    4101,    4102,    4098,    4090,    4016,    4017,    4013,    4005,    4092,    4103,    4100,    4088
     565,     656,     654,     642,     643,     631,     629,     617,     618,    4104,    4105,    4106,    4107,    4019,    4020,    4021,    4022,    4108,    4109,    4110,    4111
     566,     649,     655,     654,     656,     624,     630,     629,     631,    4078,    4112,    4104,    4113,    3993,    4027,    4019,    4028,    4083,    4082,    4109,    4108
     567,     644,     649,     656,     643,     619,     624,     631,     618,    4114,    4113,    4107,    4115,    4029,    4028,    4022,    4030,    4116,    4083,    4108,    4111
     568,     655,     652,     653,     654,     630,     627,     628,     629,    4095,    4117,    4118,    4112,    4010,    4032,    4033,    4027,    4082,    4097,    4119,    4109
     569,     641,     642,     654,     653,     616,     617,     629,     628,    4120,    4105,    4118,    4121,    4035,    4020,    4033,    4036,    4122,    4110,    4109,    4119
     570,     648,     640,     641,     653,     623,     615,     616,     628,    4123,    4124,    4121,    4125,    4038,    4039,    4036,    4040,    4126,    4127,    4122,    4119
     571,     647,     648,     653,     652,     622,     623,     628,     627,    4128,    4125,    4117,    4129,    4043,    4040,    4032,    4044,    4130,    4126,    4119,    4097
     572,     646,     647,     652,     651,     621,     622,     627,     626,    4131,    4129,    4094,    4132,    4046,    4044,    4009,    4047,    4133,    4130,    4097,    4096
     573,     645,     646,     651,     650,     620,     621,     626,     625,    4134,    4132,    4099,    4135,    4049,    4047,    4014,    4050,    4136,    4133,    4096,    4100
     574,     638,     639,     645,     650,     613,     614,     620,     625,    4137,    4138,    4135,    4102,    4052,    4053,    4050,    4017,    4103,    4139,    4136,    4100
     575,     634,     635,     649,     644,     609,     610,     624,     619,    4140,    4079,    4114,    4141,    4055,    3994,    4029,    4056,    4142,    4080,    4083,    4116
     576,     542,     552,     640,     648,     541,     551,     615,     623,    3796,    4143,    4123,    4144,    3794,    4058,    4038,    4059,    3776,    3797,    4127,    4126
     577,     532,     542,     648,     647,     531,     541,     623,     622,    3775,    4144,    4128,    4145,    3773,    4059,    4043,    4060,    3755,    3776,    4126,    4130
     578,     522,     532,     647,     646,     521,     531,     622,     621,    3754,    4145,    4131,    4146,    3752,    4060,    4046,    4061,    3734,    3755,    4130,    4133
     579,     512,     522,     646,     645,     511,     521,     621,     620,    3733,    4146,    4134,    4147,    3731,    4061,    4049,    4062,    3713,    3734,    4133,    4136
     580,     502,     512,     645,     639,     501,     511,     620,     614,    3712,    4147,    4138,    4148,    3710,    4062,    4053,    4063,    3692,    3713,    4136,    4139
     581,     449,     439,     634,     644,     450,     440,     609,     619,    3582,    4149,    4141,    4150,    3584,    4064,    4056,    4065,    3585,    3564,    4142,    4116
     582,     459,     449,     644,     643,     460,     450,     619,     618,    3603,    4150,    4115,    4151,    3605,    4065,    4030,    4066,    3606,    3585,    4116,    4111
     583,     469,     459,     643,     642,     470,     460,     618,     617,    3624,    4151,    4106,    4152,    3626,    4066,    4021,    4067,    3627,    3606,    4111,    4110
     584,     479,     469,     642,     641,     480,     470,     617,     616,    3645,    4152,    4120,    4153,    3647,    4067,    4035,    4068,    3648,    3627,    4110,    4122
     585,     489,     479,     641,     640,     490,     480,     616,     615,    3666,    4153,    4124,    4154,    3668,    4068,    4039,    4069,    3669,    3648,    4122,    4127
     586,     420,     489,     640,     552,     419,     490,     615,     551,    3681,    4154,    4143,    3814,    3682,    4069,    4058,    3813,    3541,    3669,    4127,    3797
     587,     409,     382,     502,     639,     408,     383,     501,     614,    3457,    3691,    4148,    4155,    3456,    3689,    4063,    4070,    3440,    3387,    3692,    4139
     588,     399,     409,     639,     638,     398,     408,     614,     613,    3439,    4155,    4137,    4156,    3437,    4070,    4052,    4071,    3419,    3440,    4139,    4103
     589,     389,     399,     638,     637,     388,     398,     613,     612,    3418,    4156,    4101,    4157,    3416,    4071,    4016,    4072,    3398,    3419,    4103,    4092
     590,     355,     389,     637,     365,     354,     388,     612,     364,    3397,    4157,    4089,    3369,    3395,    4072,    4004,    3368,    3337,    3398,    4092,    3352
     591,     340,     303,     365,     636,     343,     302,     364,     611,    3227,    3351,    4091,    4158,    3234,    3349,    4006,    4073,    3232,    3156,    3352,    4087
     592,     339,     340,     636,     635,     342,     343,     611,     610,    3226,    4158,    4086,    4159,    3233,    4073,    4001,    4074,    3230,    3232,    4087,    4080
     593,     338,     339,     635,     634,     341,     342,     610,     609,    3224,    4159,    4140,    4160,    3231,    4074,    4055,    4075,    3228,    3230,    4080,    4142
     594,     316,     338,     634,     439,     317,     341,     609,     440,    3222,    4160,    4149,    3561,    3229,    4075,    4064,    3563,    3175,    3228,    4142,    3564
     595,     660,     683,     680,     674,     635,     658,     655,     649,    4161,    4162,    4163,    4164,    4076,    4077,    4078,    4079,    4165,    4166,    4167,    4168
     596,     661,     682,     683,     660,     636,     657,     658,     635,    4169,    4170,    4161,    4171,    4084,    4085,    4076,    4086,    4172,    4173,    4166,    4165
     597,     366,     662,     682,     661,     365,     637,     657,     636,    4174,    4175,    4169,    4176,    4089,    4090,    4084,    4091,    3354,    4177,    4173,    4172
     598,     683,     676,     677,     680,     658,     651,     652,     655,    4178,    4179,    4180,    4162,    4093,    4094,    4095,    4077,    4166,    4181,    4182,    4167
     599,     682,     675,     676,     683,     657,     650,     651,     658,    4183,    4184,    4178,    4170,    4098,    4099,    4093,    4085,    4173,    4185,    4181,    4166
     600,     662,     663,     675,     682,     637,     638,     650,     657,    4186,    4187,    4183,    4175,    4101,    4102,    4098,    4090,    4177,    4188,    4185,    4173
     601,     681,     679,     667,     668,     656,     654,     642,     643,    4189,    4190,    4191,    4192,    4104,    4105,    4106,    4107,    4193,    4194,    4195,    4196
     602,     674,     680,     679,     681,     649,     655,     654,     656,    4163,    4197,    4189,    4198,    4078,    4112,    4104,    4113,    4168,    4167,    4194,    4193
     603,     669,     674,     681,     668,     644,     649,     656,     643,    4199,    4198,    4192,    4200,    4114,    4113,    4107,    4115,    4201,    4168,    4193,    4196
     604,     680,     677,     678,     679,     655,     652,     653,     654,    4180,    4202,    4203,    4197,    4095,    4117,    4118,    4112,    4167,    4182,    4204,    4194
     605,     666,     667,     679,     678,     641,     642,     654,     653,    4205,    4190,    4203,    4206,    4120,    4105,    4118,    4121,    4207,    4195,    4194,    4204
     606,     673,     665,     666,     678,     648,     640,     641,     653,    4208,    4209,    4206,    4210,    4123,    4124,    4121,    4125,    4211,    4212,    4207,    4204
     607,     672,     673,     678,     677,     647,     648,     653,     652,    4213,    4210,    4202,    4214,    4128,    4125,    4117,    4129,    4215,    4211,    4204,    4182
     608,     671,     672,     677,     676,     646,     647,     652,     651,    4216,    4214,    4179,    4217,    4131,    4129,    4094,    4132,    4218,    4215,    4182,    4181
     609,     670,     671,     676,     675,     645,     646,     651,     650,    4219,    4217,    4184,    4220,    4134,    4132,    4099,    4135,    4221,    4218,    4181,    4185
     610,     663,     664,     670,     675,     638,     639,     645,     650,    4222,    4223,    4220,    4187,    4137,    4138,    4135,    4102,    4188,    4224,    4221,    4185
     611,     659,     660,     674,     669,     634,     635,     649,     644,    4225,    4164,    4199,    4226,    4140,    4079,    4114,    4141,    4227,    4165,    4168,    4201
     612,     543,     553,     665,     673,     542,     552,     640,     648,    3798,    4228,    4208,    4229,    3796,    4143,    4123,    4144,    3778,    3799,    4212,    4211
     613,     533,     543,     673,     672,     532,     542,     648,     647,    3777,    4229,    4213,    4230,    3775,    4144,    4128,    4145,    3757,    3778,    4211,    4215
     614,     523,     533,     672,     671,     522,     532,     647,     646,    3756,    4230,    4216,    4231,    3754,    4145,    4131,    4146,    3736,    3757,    4215,    4218
     615,     513,     523,     671,     670,     512,     522,     646,     645,    3735,    4231,    4219,    4232,    3733,    4146,    4134,    4147,    3715,    3736,    4218,    4221
     616,     503,     513,     670,     664,     502,     512,     645,     639,    3714,    4232,    4223,    4233,    3712,    4147,    4138,    4148,    3694,    3715,    4221,    4224
     617,     448,     438,     659,     669,     449,     439,     634,     644,    3580,    4234,    4226,    4235,    3582,    4149,    4141,    4150,    3583,    3562,    4227,    4201
     618,     458,     448,     669,     668,     459,     449,     644,     643,    3601,    4235,    4200,    4236,    3603,    4150,    4115,    4151,    3604,    3583,    4201,    4196
     619,     468,     458,     668,     667,     469,     459,     643,     642,    3622,    4236,    4191,    4237,    3624,    4151,    4106,    4152,    3625,    3604,    4196,    4195
     620,     478,     468,     667,     666,     479,     469,     642,     641,    3643,    4237,    4205,    4238,    3645,    4152,    4120,    4153,    3646,    3625,    4195,    4207
     621,     488,     478,     666,     665,     489,     479,     641,     640,    3664,    4238,    4209,    4239,    3666,    4153,    4124,    4154,    3667,    3646,    4207,    4212
     622,     421,     488,     665,     553,     420,     489,     640,     552,    3680,    4239,    4228,    3815,    3681,    4154,    4143,    3814,    3542,    3667,    4212,    3799
     623,     410,     381,     503,     664,     409,     382,     502,     639,    3458,    3693,    4233,    4240,    3457,    3691,    4148,    4155,    3442,    3386,    3694,    4224
     624,     400,     410,     664,     663,     399,     409,     639,     638,    3441,    4240,    4222,    4241,    3439,    4155,    4137,    4156,    3421,    3442,    4224,    4188
     625,     390,     400,     663,     662,     389,     399,     638,     637,    3420,    4241,    4186,    4242,    3418,    4156,    4101,    4157,    3400,    3421,    4188,    4177
     626,     356,     390,     662,     366,     355,     389,     637,     365,    3399,    4242,    4174,    3370,    3397,    4157,    4089,    3369,    3338,    3400,    4177,    3354
     627,     337,     304,     366,     661,     340,     303,     365,     636,    3220,    3353,    4176,    4243,    3227,    3351,    4091,    4158,    3225,    3157,    3354,    4172
     628,     336,     337,     661,     660,     339,     340,     636,     635,    3219,    4243,    4171,    4244,    3226,    4158,    4086,    4159,    3223,    3225,    4172,    4165
     629,     335,     336,     660,     659,     338,     339,     635,     634,    3217,    4244,    4225,    4245,    3224,    4159,    4140,    4160,    3221,    3223,    4165,    4227
     630,     315,     335,     659,     438,     316,     338,     634,     439,    3215,    4245,    4234,    3559,    3222,    4160,    4149,    3561,    3174,    3221,    4227,    3562
     631,     685,     708,     705,     699,     660,     683,     680,     674,    4246,    4247,    4248,    4249,    4161,    4162,    4163,    4164,    4250,    4251,    4252,    4253
     632,     686,     707,     708,     685,     661,     682,     683,     660,    4254,    4255,    4246,    4256,    4169,    4170,    4161,    4171,    4257,    4258,    4251,    4250
     633,     367,     687,     707,     686,     366,     662,     682,     661,    4259,    4260,    4254,    4261,    4174,    4175,    4169,    4176,    3356,    4262,    4258,    4257
     634,     708,     701,     702,     705,     683,     676,     677,     680,    4263,    4264,    4265,    4247,    4178,    4179,    4180,    4162,    4251,    4266,    4267,    4252
     635,     707,     700,     701,     708,     682,     675,     676,     683,    4268,    4269,    4263,    4255,    4183,    4184,    4178,    4170,    4258,    4270,    4266,    4251
     636,     687,     688,     700,     707,     662,     663,     675,     682,    4271,    4272,    4268,    4260,    4186,    4187,    4183,    4175,    4262,    4273,    4270,    4258
     637,     706,     704,     692,     693,     681,     679,     667,     668,    4274,    4275,    4276,    4277,    4189,    4190,    4191,    4192,    4278,    4279,    4280,    4281
     638,     699,     705,     704,     706,     674,     680,     679,     681,    4248,    4282,    4274,    4283,    4163,    4197,    4189,    4198,    4253,    4252,    4279,    4278
     639,     694,     699,     706,     693,     669,     674,     681,     668,    4284,    4283,    4277,    4285,    4199,    4198,    4192,    4200,    4286,    4253,    4278,    4281
     640,     705,     702,     703,     704,     680,     677,     678,     679,    4265,    4287,    4288,    4282,    4180,    4202,    4203,    4197,    4252,    4267,    4289,    4279
     641,     691,     692,     704,     703,     666,     667,     679,     678,    4290,    4275,    4288,    4291,    4205,    4190,    4203,    4206,    4292,    4280,    4279,    4289
     642,     698,     690,     691,     703,     673,     665,     666,     678,    4293,    4294,    4291,    4295,    4208,    4209,    4206,    4210,    4296,    4297,    4292,    4289
     643,     697,     698,     703,     702,     672,     673,     678,     677,    4298,    4295,    4287,    4299,    4213,    4210,    4202,    4214,    4300,    4296,    4289,    4267
     644,     696,     697,     702,     701,     671,     672,     677,     676,    4301,    4299,    4264,    4302,    4216,    4214,    4179,    4217,    4303,    4300,    4267,    4266
     645,     695,     696,     701,     700,     670,     671,     676,     675,    4304,    4302,    4269,    4305,    4219,    4217,    4184,    4220,    4306,    4303,    4266,    4270
     646,     688,     689,     695,     700,     663,     664,     670,     675,    4307,    4308,    4305,    4272,    4222,    4223,    4220,    4187,    4273,    4309,    4306,    4270
     647,     684,     685,     699,     694,     659,     660,     674,     669,    4310,    4249,    4284,    4311,    4225,    4164,    4199,    4226,    4312,    4250,    4253,    4286
     648,     544,     554,     690,     698,     543,     553,     665,     673,    3800,    4313,    4293,    4314,    3798,    4228,    4208,    4229,    3780,    3801,    4297,    4296
     649,     534,     544,     698,     697,     533,     543,     673,     672,    3779,    4314,    4298,    4315,    3777,    4229,    4213,    4230,    3759,    3780,    4296,    4300
     650,     524,     534,     697,     696,     523,     533,     672,     671,    3758,    4315,    4301,    4316,    3756,    4230,    4216,    4231,    3738,    3759,    4300,    4303
     651,     514,     524,     696,     695,     513,     523,     671,     670,    3737,    4316,    4304,    4317,    3735,    4231,    4219,    4232,    3717,    3738,    4303,    4306
     652,     504,     514,     695,     689,     503,     513,     670,     664,    3716,    4317,    4308,    4318,    3714,    4232,    4223,    4233,    3696,    3717,    4306,    4309
     653,     447,     437,     684,     694,     448,     438,     659,     669,    3578,    4319,    4311,    4320,    3580,    4234,    4226,    4235,    3581,    3560,    4312,    4286
     654,     457,     447,     694,     693,     458,     448,     669,     668,    3599,    4320,    4285,    4321,    3601,    4235,    4200,    4236,    3602,    3581,    4286,    4281
     655,     467,     457,     693,     692,     468,     458,     668,     667,    3620,    4321,    4276,    4322,    3622,    4236,    4191,    4237,    3623,    3602,    4281,    4280
     656,     477,     467,     692,     691,     478,     468,     667,     666,    3641,    4322,    4290,    4323,    3643,    4237,    4205,    4238,    3644,    3623,    4280,    4292
     657,     487,     477,     691,     690,     488,     478,     666,     665,    3662,    4323,    4294,    4324,    3664,    4238,    4209,    4239,    3665,    3644,    4292,    4297
     658,     422,     487,     690,     554,     421,     488,     665,     553,    3679,    4324,    4313,    3816,    3680,    4239,    4228,    3815,    3543,    3665,    4297,    3801
     659,     411,     380,     504,     689,     410,     381,     503,     664,    3459,    3695,    4318,    4325,    3458,    3693,    4233,    4240,    3444,    3385,    3696,    4309
     660,     401,     411,     689,     688,     400,     410,     664,     663,    3443,    4325,    4307,    4326,    3441,    4240,    4222,    4241,    3423,    3444,    4309,    4273
     661,     391,     401,     688,     687,     390,     400,     663,     662,    3422,    4326,    4271,    4327,    3420,    4241,    4186,    4242,    3402,    3423,    4273,    4262
     662,     357,     391,     687,     367,     356,     390,     662,     366,    3401,    4327,    4259,    3371,    3399,    4242,    4174,    3370,    3339,    3402,    4262,    3356
     663,     334,     305,     367,     686,     337,     304,     366,     661,    3213,    3355,    4261,    4328,    3220,    3353,    4176,    4243,    3218,    3158,    3356,    4257
     664,     333,     334,     686,     685,     336,     337,     661,     660,    3212,    4328,    4256,    4329,    3219,    4243,    4171,    4244,    3216,    3218,    4257,    4250
     665,     332,     333,     685,     684,     335,     336,     660,     659,    3210,    4329,    4310,    4330,    3217,    4244,    4225,    4245,    3214,    3216,    4250,    4312
     666,     314,     332,     684,     437,     315,     335,     659,     438,    3208,    4330,    4319,    3557,    3215,    4245,    4234,    3559,    3173,    3214,    4312,    3560
     667,     710,     733,     730,     724,     685,     708,     705,     699,    4331,    4332,    4333,    4334,    4246,    4247,    4248,    4249,    4335,    4336,    4337,    4338
     668,     711,     732,     733,     710,     686,     707,     708,     685,    4339,    4340,    4331,    4341,    4254,    4255,    4246,    4256,    4342,    4343,    4336,    4335
     669,     368,     712,     732,     711,     367,     687,     707,     686,    4344,    4345,    4339,    4346,    4259,    4260,    4254,    4261,    3358,    4347,    4343,    4342
     670,     733,     726,     727,     730,     708,     701,     702,     705,    4348,    4349,    4350,    4332,    4263,    4264,    4265,    4247,    4336,    4351,    4352,    4337
     671,     732,     725,     726,     733,     707,     700,     701,     708,    4353,    4354,    4348,    4340,    4268,    4269,    4263,    4255,    4343,    4355,    4351,    4336
     672,     712,     713,     725,     732,     687,     688,     700,     707,    4356,    4357,    4353,    4345,    4271,    4272,    4268,    4260,    4347,    4358,    4355,    4343
     673,     731,     729,     717,     718,     706,     704,     692,     693,    4359,    4360,    4361,    4362,    4274,    4275,    4276,    4277,    4363,    4364,    4365,    4366
     674,     724,     730,     729,     731,     699,     705,     704,     706,    4333,    4367,    4359,    4368,    4248,    4282,    4274,    4283,    4338,    4337,    4364,    4363
     675,     719,     724,     731,     718,     694,     699,     706,     693,    4369,    4368,    4362,    4370,    4284,    4283,    4277,    4285,    4371,    4338,    4363,    4366
     676,     730,     727,     728,     729,     705,     702,     703,     704,    4350,    4372,    4373,    4367,    4265,    4287,    4288,    4282,    4337,    4352,    4374,    4364
     677,     716,     717,     729,     728,     691,     692,     704,     703,    4375,    4360,    4373,    4376,    4290,    4275,    4288,    4291,    4377,    4365,    4364,    4374
     678,     723,     715,     716,     728,     698,     690,     691,     703,    4378,    4379,    4376,    4380,    4293,    4294,    4291,    4295,    4381,    4382,    4377,    4374
     679,     722,     723,     728,     727,     697,     698,     703,     702,    4383,    4380,    4372,    4384,    4298,    4295,    4287,    4299,    4385,    4381,    4374,    4352
     680,     721,     722,     727,     726,     696,     697,     702,     701,    4386,    4384,    4349,    4387,    4301,    4299,    4264,    4302,    4388,    4385,    4352,    4351
     681,     720,     721,     726,     725,     695,     696,     701,     700,    4389,    4387,    4354,    4390,    4304,    4302,    4269,    4305,    4391,    4388,    4351,    4355
     682,     713,     714,     720,     725,     688,     689,     695,     700,    4392,    4393,    4390,    4357,    4307,    4308,    4305,    4272,    4358,    4394,    4391,    4355
     683,     709,     710,     724,     719,     684,     685,     699,     694,    4395,    4334,    4369,    4396,    4310,    4249,    4284,    4311,    4397,    4335,    4338,    4371
     684,     545,     555,     715,     723,     544,     554,     690,     698,    3802,    4398,    4378,    4399,    3800,    4313,    4293,    4314,    3782,    3803,    4382,    4381
     685,     535,     545,     723,     722,     534,     544,     698,     697,    3781,    4399,    4383,    4400,    3779,    4314,    4298,    4315,    3761,    3782,    4381,    4385
     686,     525,     535,     722,     721,     524,     534,     697,     696,    3760,    4400,    4386,    4401,    3758,    4315,    4301,    4316,    3740,    3761,    4385,    4388
     687,     515,     525,     721,     720,     514,     524,     696,     695,    3739,    4401,    4389,    4402,    3737,    4316,    4304,    4317,    3719,    3740,    4388,    4391
     688,     505,     515,     720,     714,     504,     514,     695,     689,    3718,    4402,    4393,    4403,    3716,    4317,    4308,    4318,    3698,    3719,    4391,    4394
     689,     446,     436,     709,     719,     447,     437,     684,     694,    3576,    4404,    4396,    4405,    3578,    4319,    4311,    4320,    3579,    3558,    4397,    4371
     690,     456,     446,     719,     718,     457,     447,     694,     693,    3597,    4405,    4370,    4406,    3599,    4320,    4285,    4321,    3600,    3579,    4371,    4366
     691,     466,     456,     718,     717,     467,     457,     693,     692,    3618,    4406,    4361,    4407,    3620,    4321,    4276,    4322,    3621,    3600,    4366,    4365
     692,     476,     466,     717,     716,     477,     467,     692,     691,    3639,    4407,    4375,    4408,    3641,    4322,    4290,    4323,    3642,    3621,    4365,    4377
     693,     486,     476,     716,     715,     487,     477,     691,     690,    3660,    4408,    4379,    4409,    3662,    4323,    4294,    4324,    3663,    3642,    4377,    4382
     694,     423,     486,     715,     555,     422,     487,     690,     554,    3678,    4409,    4398,    3817,    3679,    4324,    4313,    3816,    3544,    3663,    4382,    3803
     695,     412,     379,     505,     714,     411,     380,     504,     689,    3460,    3697,    4403,    4410,    3459,    3695,    4318,    4325,    3446,    3384,    3698,    4394
     696,     402,     412,     714,     713,     401,     411,     689,     688,    3445,    4410,    4392,    4411,    3443,    4325,    4307,    4326,    3425,    3446,    4394,    4358
     697,     392,     402,     713,     712,     391,     401,     688,     687,    3424,    4411,    4356,    4412,    3422,    4326,    4271,    4327,    3404,    3425,    4358,    4347
     698,     358,     392,     712,     368,     357,     391,     687,     367,    3403,    4412,    4344,    3372,    3401,    4327,    4259,    3371,    3340,    3404,    4347,    3358
     699,     331,     306,     368,     711,     334,     305,     367,     686,    3206,    3357,    4346,    4413,    3213,    3355,    4261,    4328,    3211,    3159,    3358,    4342
     700,     330,     331,     711,     710,     333,     334,     686,     685,    3205,    4413,    4341,    4414,    3212,    4328,    4256,    4329,    3209,    3211,    4342,    4335
     701,     329,     330,     710,     709,     332,     333,     685,     684,    3203,    4414,    4395,    4415,    3210,    4329,    4310,    4330,    3207,    3209,    4335,    4397
     702,     313,     329,     709,     436,     314,     332,     684,     437,    3201,    4415,    4404,    3555,    3208,    4330,    4319,    3557,    3172,    3207,    4397,    3558
     703,     735,     758,     755,     749,     710,     733,     730,     724,    4416,    4417,    4418,    4419,    4331,    4332,    4333,    4334,    4420,    4421,    4422,    4423
     704,     736,     757,     758,     735,     711,     732,     733,     710,    4424,    4425,    4416,    4426,    4339,    4340,    4331,    4341,    4427,    4428,    4421,    4420
     705,     369,     737,     757,     736,     368,     712,     732,     711,    4429,    4430,    4424,    4431,    4344,    4345,    4339,    4346,    3360,    4432,    4428,    4427
     706,     758,     751,     752,     755,     733,     726,     727,     730,    4433,    4434,    4435,    4417,    4348,    4349,    4350,    4332,    4421,    4436,    4437,    4422
     707,     757,     750,     751,     758,     732,     725,     726,     733,    4438,    4439,    4433,    4425,    4353,    4354,    4348,    4340,    4428,    4440,    4436,    4421
     708,     737,     738,     750,     757,     712,     713,     725,     732,    4441,    4442,    4438,    4430,    4356,    4357,    4353,    4345,    4432,    4443,    4440,    4428
     709,     756,     754,     742,     743,     731,     729,     717,     718,    4444,    4445,    4446,    4447,    4359,    4360,    4361,    4362,    4448,    4449,    4450,    4451
     710,     749,     755,     754,     756,     724,     730,     729,     731,    4418,    4452,    4444,    4453,    4333,    4367,    4359,    4368,    4423,    4422,    4449,    4448
     711,     744,     749,     756,     743,     719,     724,     731,     718,    4454,    4453,    4447,    4455,    4369,    4368,    4362,    4370,    4456,    4423,    4448,    4451
     712,     755,     752,     753,     754,     730,     727,     728,     729,    4435,    4457,    4458,    4452,    4350,    4372,    4373,    4367,    4422,    4437,    4459,    4449
     713,     741,     742,     754,     753,     716,     717,     729,     728,    4460,    4445,    4458,    4461,    4375,    4360,    4373,    4376,    4462,    4450,    4449,    4459
     714,     748,     740,     741,     753,     723,     715,     716,     728,    4463,    4464,    4461,    4465,    4378,    4379,    4376,    4380,    4466,    4467,    4462,    4459
     715,     747,     748,     753,     752,     722,     723,     728,     727,    4468,    4465,    4457,    4469,    4383,    4380,    4372,    4384,    4470,    4466,    4459,    4437
     716,     746,     747,     752,     751,     721,     722,     727,     726,    4471,    4469,    4434,    4472,    4386,    4384,    4349,    4387,    4473,    4470,    4437,    4436
     717,     745,     746,     751,     750,     720,     721,     726,     725,    4474,    4472,    4439,    4475,    4389,    4387,    4354,    4390,    4476,    4473,    4436,    4440
     718,     738,     739,     745,     750,     713,     714,     720,     725,    4477,    4478,    4475,    4442,    4392,    4393,    4390,    4357,    4443,    4479,    4476,    4440
     719,     734,     735,     749,     744,     709,     710,     724,     719,    4480,    4419,    4454,    4481,    4395,    4334,    4369,    4396,    4482,    4420,    4423,    4456
     720,     546,     556,     740,     748,     545,     555,     715,     723,    3804,    4483,    4463,    4484,    3802,    4398,    4378,    4399,    3784,    3805,    4467,    4466
     721,     536,     546,     748,     747,     535,     545,     723,     722,    3783,    4484,    4468,    4485,    3781,    4399,    4383,    4400,    3763,    3784,    4466,    4470
     722,     526,     536,     747,     746,     525,     535,     722,     721,    3762,    4485,    4471,    4486,    3760,    4400,    4386,    4401,    3742,    3763,    4470,    4473
     723,     516,     526,     746,     745,     515,     525,     721,     720,    3741,    4486,    4474,    4487,    3739,    4401,    4389,    4402,    3721,    3742,    4473,    4476
     724,     506,     516,     745,     739,     505,     515,     720,     714,    3720,    4487,    4478,    4488,    3718,    4402,    4393,    4403,    3700,    3721,    4476,    4479
     725,     445,     435,     734,     744,     446,     436,     709,     719,    3574,    4489,    4481,    4490,    3576,    4404,    4396,    4405,    3577,    3556,    4482,    4456
     726,     455,     445,     744,     743,     456,     446,     719,     718,    3595,    4490,    4455,    4491,    3597,    4405,    4370,    4406,    3598,    3577,    4456,    4451
     727,     465,     455,     743,     742,     466,     456,     718,     717,    3616,    4491,    4446,    4492,    3618,    4406,    4361,    4407,    3619,    3598,    4451,    4450
     728,     475,     465,     742,     741,     476,     466,     717,     716,    3637,    4492,    4460,    4493,    3639,    4407,    4375,    4408,    3640,    3619,    4450,    4462
     729,     485,     475,     741,     740,     486,     476,     716,     715,    3658,    4493,    4464,    4494,    3660,    4408,    4379,    4409,    3661,    3640,    4462,    4467
     730,     424,     485,     740,     556,     423,     486,     715,     555,    3677,    4494,    4483,    3818,    3678,    4409,    4398,    3817,    3545,    3661,    4467,    3805
     731,     413,     378,     506,     739,     412,     379,     505,     714,    3461,    3699,    4488,    4495,    3460,    3697,    4403,    4410,    3448,    3383,    3700,    4479
     732,     403,     413,     739,     738,     402,     412,     714,     713,    3447,    4495,    4477,    4496,    3445,    4410,    4392,    4411,    3427,    3448,    4479,    4443
     733,     393,     403,     738,     737,     392,     402,     713,     712,    3426,    4496,    4441,    4497,    3424,    4411,    4356,    4412,    3406,    3427,    4443,    4432
     734,     359,     393,     737,     369,     358,     392,     712,     368,    3405,    4497,    4429,    3373,    3403,    4412,    4344,    3372,    3341,    3406,    4432,    3360
     735,     328,     307,     369,     736,     331,     306,     368,     711,    3199,    3359,    4431,    4498,    3206,    3357,    4346,    4413,    3204,    3160,    3360,    4427
     736,     327,     328,     736,     735,     330,     331,     711,     710,    3198,    4498,    4426,    4499,    3205,    4413,    4341,    4414,    3202,    3204,    4427,    4420
     737,     326,     327,     735,     734,     329,     330,     710,     709,    3196,    4499,    4480,    4500,    3203,    4414,    4395,    4415,    3200,    3202,    4420,    4482
     738,     312,     326,     734,     435,     313,     329,     709,     436,    3194,    4500,    4489,    3553,    3201,    4415,    4404,    3555,    3171,    3200,    4482,    3556
     739,     760,     783,     780,     774,     735,     758,     755,     749,    4501,    4502,    4503,    4504,    4416,    4417,    4418,    4419,    4505,    4506,    4507,    4508
     740,     761,     782,     783,     760,     736,     757,     758,     735,    4509,    4510,    4501,    4511,    4424,    4425,    4416,    4426,    4512,    4513,    4506,    4505
     741,     370,     762,     782,     761,     369,     737,     757,     736,    4514,    4515,    4509,    4516,    4429,    4430,    4424,    4431,    3362,    4517,    4513,    4512
     742,     783,     776,     777,     780,     758,     751,     752,     755,    4518,    4519,    4520,    4502,    4433,    4434,    4435,    4417,    4506,    4521,    4522,    4507
     743,     782,     775,     776,     783,     757,     750,     751,     758,    4523,    4524,    4518,    4510,    4438,    4439,    4433,    4425,    4513,    4525,    4521,    4506
     744,     762,     763,     775,     782,     737,     738,     750,     757,    4526,    4527,    4523,    4515,    4441,    4442,    4438,    4430,    4517,    4528,    4525,    4513
     745,     781,     779,     767,     768,     756,     754,     742,     743,    4529,    4530,    4531,    4532,    4444,    4445,    4446,    4447,    4533,    4534,    4535,    4536
     746,     774,     780,     779,     781,     749,     755,     754,     756,    4503,    4537,    4529,    4538,    4418,    4452,    4444,    4453,    4508,    4507,    4534,    4533
     747,     769,     774,     781,     768,     744,     749,     756,     743,    4539,    4538,    4532,    4540,    4454,    4453,    4447,    4455,    4541,    4508,    4533,    4536
     748,     780,     777,     778,     779,     755,     752,     753,     754,    4520,    4542,    4543,    4537,    4435,    4457,    4458,    4452,    4507,    4522,    4544,    4534
     749,     766,     767,     779,     778,     741,     742,     754,     753,    4545,    4530,    4543,    4546,    4460,    4445,    4458,    4461,    4547,    4535,    4534,    4544
     750,     773,     765,     766,     778,     748,     740,     741,     753,    4548,    4549,    4546,    4550,    4463,    4464,    4461,    4465,    4551,    4552,    4547,    4544
     751,     772,     773,     778,     777,     747,     748,     753,     752,    4553,    4550,    4542,    4554,    4468,    4465,    4457,    4469,    4555,    4551,    4544,    4522
     752,     771,     772,     777,     776,     746,     747,     752,     751,    4556,    4554,    4519,    4557,    4471,    4469,    4434,    4472,    4558,    4555,    4522,    4521
     753,     770,     771,     776,     775,     745,     746,     751,     750,    4559,    4557,    4524,    4560,    4474,    4472,    4439,    4475,    4561,    4558,    4521,    4525
     754,     763,     764,     770,     775,     738,     739,     745,     750,    4562,    4563,    4560,    4527,    4477,    4478,    4475,    4442,    4528,    4564,    4561,    4525
     755,     759,     760,     774,     769,     734,     735,     749,     744,    4565,    4504,    4539,    4566,    4480,    4419,    4454,    4481,    4567,    4505,    4508,    4541
     756,     547,     557,     765,     773,     546,     556,     740,     748,    3806,    4568,    4548,    4569,    3804,    4483,    4463,    4484,    3786,    3807,    4552,    4551
     757,     537,     547,     773,     772,     536,     546,     748,     747,    3785,    4569,    4553,    4570,    3783,    4484,    4468,    4485,    3765,    3786,    4551,    4555
     758,     527,     537,     772,     771,     526,     536,     747,     746,    3764,    4570,    4556,    4571,    3762,    4485,    4471,    4486,    3744,    3765,    4555,    4558
     759,     517,     527,     771,     770,     516,     526,     746,     745,    3743,    4571,    4559,    4572,    3741,    4486,    4474,    4487,    3723,    3744,    4558,    4561
     760,     507,     517,     770,     764,     506,     516,     745,     739,    3722,    4572,    4563,    4573,    3720,    4487,    4478,    4488,    3702,    3723,    4561,    4564
     761,     444,     434,     759,     769,     445,     435,     734,     744,    3572,    4574,    4566,    4575,    3574,    4489,    4481,    4490,    3575,    3554,    4567,    4541
     762,     454,     444,     769,     768,     455,     445,     744,     743,    3593,    4575,    4540,    4576,    3595,    4490,    4455,    4491,    3596,    3575,    4541,    4536
     763,     464,     454,     768,     767,     465,     455,     743,     742,    3614,    4576,    4531,    4577,    3616,    4491,    4446,    4492,    3617,    3596,    4536,    4535
     764,     474,     464,     767,     766,     475,     465,     742,     741,    3635,    4577,    4545,    4578,    3637,    4492,    4460,    4493,    3638,    3617,    4535,    4547
     765,     484,     474,     766,     765,     485,     475,     741,     740,    3656,    4578,    4549,    4579,    3658,    4493,    4464,    4494,    3659,    3638,    4547,    4552
     766,     425,     484,     765,     557,     424,     485,     740,     556,    3676,    4579,    4568,    3819,    3677,    4494,    4483,    3818,    3546,    3659,    4552,    3807
     767,     414,     377,     507,     764,     413,     378,     506,     739,    3462,    3701,    4573,    4580,    3461,    3699,    4488,    4495,    3450,    3382,    3702,    4564
     768,     404,     414,     764,     763,     403,     413,     739,     738,    3449,    4580,    4562,    4581,    3447,    4495,    4477,    4496,    3429,    3450,    4564,    4528
     769,     394,     404,     763,     762,     393,     403,     738,     737,    3428,    4581,    4526,    4582,    3426,    4496,    4441,    4497,    3408,    3429,    4528,    4517
     770,     360,     394,     762,     370,     359,     393,     737,     369,    3407,    4582,    4514,    3374,    3405,    4497,    4429,    3373,    3342,    3408,    4517,    3362
     771,     325,     308,     370,     761,     328,     307,     369,     736,    3192,    3361,    4516,    4583,    3199,    3359,    4431,    4498,    3197,    3161,    3362,    4512
     772,     324,     325,     761,     760,     327,     328,     736,     735,    3191,    4583,    4511,    4584,    3198,    4498,    4426,    4499,    3195,    3197,    4512,    4505
     773,     323,     324,     760,     759,     326,     327,     735,     734,    3189,    4584,    4565,    4585,    3196,    4499,    4480,    4500,    3193,    3195,    4505,    4567
     774,     311,     323,     759,     434,     312,     326,     734,     435,    3187,    4585,    4574,    3551,    3194,    4500,    4489,    3553,    3170,    3193,    4567,    3554
     775,     785,     808,     805,     799,     760,     783,     780,     774,    4586,    4587,    4588,    4589,    4501,    4502,    4503,    4504,    4590,    4591,    4592,    4593
     776,     786,     807,     808,     785,     761,     782,     783,     760,    4594,    4595,    4586,    4596,    4509,    4510,    4501,    4511,    4597,    4598,    4591,    4590
     777,     371,     787,     807,     786,     370,     762,     782,     761,    4599,    4600,    4594,    4601,    4514,    4515,    4509,    4516,    3364,    4602,    4598,    4597
     778,     808,     801,     802,     805,     783,     776,     777,     780,    4603,    4604,    4605,    4587,    4518,    4519,    4520,    4502,    4591,    4606,    4607,    4592
     779,     807,     800,     801,     808,     782,     775,     776,     783,    4608,    4609,    4603,    4595,    4523,    4524,    4518,    4510,    4598,    4610,    4606,    4591
     780,     787,     788,     800,     807,     762,     763,     775,     782,    4611,    4612,    4608,    4600,    4526,    4527,    4523,    4515,    4602,    4613,    4610,    4598
     781,     806,     804,     792,     793,     781,     779,     767,     768,    4614,    4615,    4616,    4617,    4529,    4530,    4531,    4532,    4618,    4619,    4620,    4621
     782,     799,     805,     804,     806,     774,     780,     779,     781,    4588,    4622,    4614,    4623,    4503,    4537,    4529,    4538,    4593,    4592,    4619,    4618
     783,     794,     799,     806,     793,     769,     774,     781,     768,    4624,    4623,    4617,    4625,    4539,    4538,    4532,    4540,    4626,    4593,    4618,    4621
     784,     805,     802,     803,     804,     780,     777,     778,     779,    4605,    4627,    4628,    4622,    4520,    4542,    4543,    4537,    4592,    4607,    4629,    4619
     785,     791,     792,     804,     803,     766,     767,     779,     778,    4630,    4615,    4628,    4631,    4545,    4530,    4543,    4546,    4632,    4620,    4619,    4629
     786,     798,     790,     791,     803,     773,     765,     766,     778,    4633,    4634,    4631,    4635,    4548,    4549,    4546,    4550,    4636,    4637,    4632,    4629
     787,     797,     798,     803,     802,     772,     773,     778,     777,    4638,    4635,    4627,    4639,    4553,    4550,    4542,    4554,    4640,    4636,    4629,    4607
     788,     796,     797,     802,     801,     771,     772,     777,     776,    4641,    4639,    4604,    4642,    4556,    4554,    4519,    4557,    4643,    4640,    4607,    4606
     789,     795,     796,     801,     800,     770,     771,     776,     775,    4644,    4642,    4609,    4645,    4559,    4557,    4524,    4560,    4646,    4643,    4606,    4610
     790,     788,     789,     795,     800,     763,     764,     770,     775,    4647,    4648,    4645,    4612,    4562,    4563,    4560,    4527,    4613,    4649,    4646,    4610
     791,     784,     785,     799,     794,     759,     760,     774,     769,    4650,    4589,    4624,    4651,    4565,    4504,    4539,    4566,    4652,    4590,    4593,    4626
     792,     548,     558,     790,     798,     547,     557,     765,     773,    3808,    4653,    4633,    4654,    3806,    4568,    4548,    4569,    3788,    3809,    4637,    4636
     793,     538,     548,     798,     797,     537,     547,     773,     772,    3787,    4654,    4638,    4655,    3785,    4569,    4553,    4570,    3767,    3788,    4636,    4640
     794,     528,     538,     797,     796,     527,     537,     772,     771,    3766,    4655,    4641,    4656,    3764,    4570,    4556,    4571,    3746,    3767,    4640,    4643
     795,     518,     528,     796,     795,     517,     527,     771,     770,    3745,    4656,    4644,    4657,    3743,    4571,    4559,    4572,    3725,    3746,    4643,    4646
     796,     508,     518,     795,     789,     507,     517,     770,     764,    3724,    4657,    4648,    4658,    3722,    4572,    4563,    4573,    3704,    3725,    4646,    4649
     797,     443,     433,     784,     794,     444,     434,     759,     769,    3570,    4659,    4651,    4660,    3572,    4574,    4566,    4575,    3573,    3552,    4652,    4626
     798,     453,     443,     794,     793,     454,     444,     769,     768,    3591,    4660,    4625,    4661,    3593,    4575,    4540,    4576,    3594,    3573,    4626,    4621
     799,     463,     453,     793,     792,     464,     454,     768,     767,    3612,    4661,    4616,    4662,    3614,    4576,    4531,    4577,    3615,    3594,    4621,    4620
     800,     473,     463,     792,     791,     474,     464,     767,     766,    3633,    4662,    4630,    4663,    3635,    4577,    4545,    4578,    3636,    3615,    4620,    4632
     801,     483,     473,     791,     790,     484,     474,     766,     765,    3654,    4663,    4634,    4664,    3656,    4578,    4549,    4579,    3657,    3636,    4632,    4637
     802,     426,     483,     790,     558,     425,     484,     765,     557,    3675,    4664,    4653,    3820,    3676,    4579,    4568,    3819,    3547,    3657,    4637,    3809
     803,     415,     376,     508,     789,     414,     377,     507,     764,    3463,    3703,    4658,    4665,    3462,    3701,    4573,    4580,    3452,    3381,    3704,    4649
     804,     405,     415,     789,     788,     404,     414,     764,     763,    3451,    4665,    4647,    4666,    3449,    4580,    4562,    4581,    3431,    3452,    4649,    4613
     805,     395,     405,     788,     787,     394,     404,     763,     762,    3430,    4666,    4611,    4667,    3428,    4581,    4526,    4582,    3410,    3431,    4613,    4602
     806,     361,     395,     787,     371,     360,     394,     762,     370,    3409,    4667,    4599,    3375,    3407,    4582,    4514,    3374,    3343,    3410,    4602,    3364
     807,     322,     309,     371,     786,     325,     308,     370,     761,    3185,    3363,    4601,    4668,    3192,    3361,    4516,    4583,    3190,    3162,    3364,    4597
     808,     321,     322,     786,     785,     324,     325,     761,     760,    3184,    4668,    4596,    4669,    3191,    4583,    4511,    4584,    3188,    3190,    4597,    4590
     809,     320,     321,     785,     784,     323,     324,     760,     759,    3182,    4669,    4650,    4670,    3189,    4584,    4565,    4585,    3186,    3188,    4590,    4652
     810,     310,     320,     784,     433,     311,     323,     759,     434,    3180,    4670,    4659,    3549,    3187,    4585,    4574,    3551,    3169,    3186,    4652,    3552
     811,     810,     833,     830,     824,     785,     808,     805,     799,    3478,    3481,    3480,    3479,    4586,    4587,    4588,    4589,    4671,    4672,    4673,    4674
     812,     811,     832,     833,     810,     786,     807,     808,     785,    3482,    3484,    3478,    3483,    4594,    4595,    4586,    4596,    4675,    4676,    4672,    4671
     813,     351,     812,     832,     811,     371,     787,     807,     786,    3485,    3487,    3482,    3486,    4599,    4600,    4594,    4601,    3365,    4677,    4676,    4675
     814,     833,     826,     827,     830,     808,     801,     802,     805,    3488,    3490,    3489,    3481,    4603,    4604,    4605,    4587,    4672,    4678,    4679,    4673
     815,     832,     825,     826,     833,     807,     800,     801,     808,    3491,    3492,    3488,    3484,    4608,    4609,    4603,    4595,    4676,    4680,    4678,    4672
     816,     812,     813,     825,     832,     787,     788,     800,     807,    3493,    3494,    3491,    3487,    4611,    4612,    4608,    4600,    4677,    4681,    4680,    4676
     817,     831,     829,     817,     818,     806,     804,     792,     793,    3495,    3498,    3497,    3496,    4614,    4615,    4616,    4617,    4682,    4683,    4684,    4685
     818,     824,     830,     829,     831,     799,     805,     804,     806,    3480,    3500,    3495,    3499,    4588,    4622,    4614,    4623,    4674,    4673,    4683,    4682
     819,     819,     824,     831,     818,     794,     799,     806,     793,    3501,    3499,    3496,    3502,    4624,    4623,    4617,    4625,    4686,    4674,    4682,    4685
     820,     830,     827,     828,     829,     805,     802,     803,     804,    3489,    3504,    3503,    3500,    4605,    4627,    4628,    4622,    4673,    4679,    4687,    4683
     821,     816,     817,     829,     828,     791,     792,     804,     803,    3505,    3498,    3503,    3506,    4630,    4615,    4628,    4631,    4688,    4684,    4683,    4687
     822,     823,     815,     816,     828,     798,     790,     791,     803,    3507,    3509,    3506,    3508,    4633,    4634,    4631,    4635,    4689,    4690,    4688,    4687
     823,     822,     823,     828,     827,     797,     798,     803,     802,    3510,    3508,    3504,    3511,    4638,    4635,    4627,    4639,    4691,    4689,    4687,    4679
     824,     821,     822,     827,     826,     796,     797,     802,     801,    3512,    3511,    3490,    3513,    4641,    4639,    4604,    4642,    4692,    4691,    4679,    4678
     825,     820,     821,     826,     825,     795,     796,     801,     800,    3514,    3513,    3492,    3515,    4644,    4642,    4609,    4645,    4693,    4692,    4678,    4680
     826,     813,     814,     820,     825,     788,     789,     795,     800,    3516,    3517,    3515,    3494,    4647,    4648,    4645,    4612,    4681,    4694,    4693,    4680
     827,     809,     810,     824,     819,     784,     785,     799,     794,    3518,    3479,    3501,    3519,    4650,    4589,    4624,    4651,    4695,    4671,    4674,    4686
     828,     497,     498,     815,     823,     548,     558,     790,     798,    3476,    3521,    3507,    3520,    3808,    4653,    4633,    4654,    3789,    3810,    4690,    4689
     829,     496,     497,     823,     822,     538,     548,     798,     797,    3475,    3520,    3510,    3522,    3787,    4654,    4638,    4655,    3768,    3789,    4689,    4691
     830,     495,     496,     822,     821,     528,     538,     797,     796,    3474,    3522,    3512,    3523,    3766,    4655,    4641,    4656,    3747,    3768,    4691,    4692
     831,     494,     495,     821,     820,     518,     528,     796,     795,    3473,    3523,    3514,    3524,    3745,    4656,    4644,    4657,    3726,    3747,    4692,    4693
     832,     493,     494,     820,     814,     508,     518,     795,     789,    3472,    3524,    3517,    3525,    3724,    4657,    4648,    4658,    3705,    3726,    4693,    4694
     833,     431,     432,     809,     819,     443,     433,     784,     794,    3469,    3527,    3519,    3526,    3570,    4659,    4651,    4660,    3571,    3550,    4695,    4686
     834,     430,     431,     819,     818,     453,     443,     794,     793,    3468,    3526,    3502,    3528,    3591,    4660,    4625,    4661,    3592,    3571,    4686,    4685
     835,     429,     430,     818,     817,     463,     453,     793,     792,    3467,    3528,    3497,    3529,    3612,    4661,    4616,    4662,    3613,    3592,    4685,    4684
     836,     428,     429,     817,     816,     473,     463,     792,     791,    3466,    3529,    3505,    3530,    3633,    4662,    4630,    4663,    3634,    3613,    4684,    4688
     837,     427,     428,     816,     815,     483,     473,     791,     790,    3465,    3530,    3509,    3531,    3654,    4663,    4634,    4664,    3655,    3634,    4688,    4690
     838,     416,     427,     815,     498,     426,     483,     790,     558,    3464,    3531,    3521,    3477,    3675,    4664,    4653,    3820,    3548,    3655,    4690,    3810
     839,     375,     372,     493,     814,     415,     376,     508,     789,    3379,    3471,    3525,    3532,    3463,    3703,    4658,    4665,    3453,    3380,    3705,    4694
     840,     374,     375,     814,     813,     405,     415,     789,     788,    3378,    3532,    3516,    3533,    3451,    4665,    4647,    4666,    3432,    3453,    4694,    4681
     841,     373,     374,     813,     812,     395,     405,     788,     787,    3377,    3533,    3493,    3534,    3430,    4666,    4611,    4667,    3411,    3432,    4681,    4677
     842,     350,     373,     812,     351,     361,     395,     787,     371,    3376,    3534,    3485,    3332,    3409,    4667,    4599,    3375,    3344,    3411,    4677,    3365
     843,     297,     295,     351,     811,     322,     309,     371,     786,    3149,    3333,    3486,    3535,    3185,    3363,    4601,    4668,    3183,    3163,    3365,    4675
     844,     298,     297,     811,     810,     321,     322,     786,     785,    3150,    3535,    3483,    3536,    3184,    4668,    4596,    4669,    3181,    3183,    4675,    4671
     845,     299,     298,     810,     809,     320,     321,     785,     784,    3151,    3536,    3518,    3537,    3182,    4669,    4650,    4670,    3179,    3181,    4671,    4695
     846,     296,     299,     809,     432,     310,     320,     784,     433,    3152,    3537,    3527,    3470,    3180,    4670,    4659,    3549,    3168,    3179,    4695,    3550
     847,      26,      49,      47,      45,     171,     194,     191,     185,    3331,    3329,    3323,    3306,    5000,    5001,    5002,    5003,    4996,    4997,    4998,    4999
     848,      27,      48,      49,      26,     172,     193,     194,     171,    3330,    3328,    3331,    3277,    5006,    5007,    5000,    5008,    5004,    5005,    4997,    4996
     849,       7,      28,      48,      27,      84,     173,     193,     172,    3280,    3326,    3330,    3278,    5010,    5011,    5006,    5012,    4834,    5009,    5005,    5004
     850,      49,      41,      42,      47,     194,     187,     188,     191,    3327,    3313,    3319,    3329,    5015,    5016,    5017,    5001,    4997,    5013,    5014,    4998
     851,      48,      40,      41,      49,     193,     186,     187,     194,    3325,    3311,    3327,    3328,    5019,    5020,    5015,    5007,    5005,    5018,    5013,    4997
     852,      28,      29,      40,      48,     173,     174,     186,     193,    3282,    3309,    3325,    3326,    5022,    5023,    5019,    5011,    5009,    5021,    5018,    5005
     853,      34,      44,      33,      46,     192,     190,     178,     179,    3324,    3317,    3293,    3322,    5028,    5029,    5030,    5031,    5024,    5025,    5026,    5027
     854,      45,      47,      44,      34,     185,     191,     190,     192,    3323,    3320,    3324,    3321,    5002,    5032,    5028,    5033,    4999,    4998,    5025,    5024
     855,      35,      45,      34,      46,     180,     185,     192,     179,    3307,    3321,    3322,    3295,    5035,    5033,    5031,    5036,    5034,    4999,    5024,    5027
     856,      47,      42,      43,      44,     191,     188,     189,     190,    3319,    3315,    3318,    3320,    5017,    5038,    5039,    5032,    4998,    5014,    5037,    5025
     857,      32,      33,      44,      43,     177,     178,     190,     189,    3291,    3317,    3318,    3316,    5041,    5029,    5039,    5042,    5040,    5026,    5025,    5037
     858,      39,      31,      32,      43,     184,     176,     177,     189,    3305,    3289,    3316,    3314,    5045,    5046,    5042,    5047,    5043,    5044,    5040,    5037
     859,      38,      39,      43,      42,     183,     184,     189,     188,    3304,    3314,    3315,    3312,    5049,    5047,    5038,    5050,    5048,    5043,    5037,    5014
     860,      37,      38,      42,      41,     182,     183,     188,     187,    3302,    3312,    3313,    3310,    5052,    5050,    5016,    5053,    5051,    5048,    5014,    5013
     861,      36,      37,      41,      40,     181,     182,     187,     186,    3300,    3310,    3311,    3308,    5055,    5053,    5020,    5056,    5054,    5051,    5013,    5018
     862,      29,      30,      36,      40,     174,     175,     181,     186,    3284,    3298,    3308,    3309,    5058,    5059,    5056,    5023,    5021,    5057,    5054,    5018
     863,      25,      26,      45,      35,     170,     171,     185,     180,    3275,    3306,    3307,    3296,    5061,    5003,    5035,    5062,    5060,    4996,    4999,    5034
     864,      14,      13,      31,      39,     135,     139,     176,     184,    3259,    3287,    3305,    3303,    4931,    5063,    5045,    5064,    4924,    4933,    5044,    5043
     865,      15,      14,      39,      38,     131,     135,     184,     183,    3260,    3303,    3304,    3301,    4922,    5064,    5049,    5065,    4915,    4924,    5043,    5048
     866,      16,      15,      38,      37,     127,     131,     183,     182,    3261,    3301,    3302,    3299,    4913,    5065,    5052,    5066,    4906,    4915,    5048,    5051
     867,      17,      16,      37,      36,     123,     127,     182,     181,    3262,    3299,    3300,    3297,    4904,    5066,    5055,    5067,    4897,    4906,    5051,    5054
     868,      18,      17,      36,      30,     119,     123,     181,     175,    3263,    3297,    3298,    3285,    4895,    5067,    5059,    5068,    4888,    4897,    5054,    5057
     869,      20,      19,      25,      35,     150,     146,     170,     180,    3266,    3273,    3296,    3294,    4947,    5069,    5062,    5070,    4948,    4939,    5060,    5034
     870,      21,      20,      35,      46,     154,     150,     180,     179,    3267,    3294,    3295,    3292,    4956,    5070,    5036,    5071,    4957,    4948,    5034,    5027
     871,      22,      21,      46,      33,     158,     154,     179,     178,    3268,    3292,    3293,    3290,    4965,    5071,    5030,    5072,    4966,    4957,    5027,    5026
     872,      23,      22,      33,      32,     162,     158,     178,     177,    3269,    3290,    3291,    3288,    4974,    5072,    5041,    5073,    4975,    4966,    5026,    5040
     873,      24,      23,      32,      31,     166,     162,     177,     176,    3270,    3288,    3289,    3286,    4983,    5073,    5046,    5074,    4984,    4975,    5040,    5044
     874,      12,      24,      31,      13,     109,     166,     176,     139,    3271,    3286,    3287,    3258,    4992,    5074,    5063,    4937,    4879,    4984,    5044,    4933
     875,       9,       8,      18,      30,     104,      86,     119,     175,    3254,    3264,    3285,    3283,    4874,    4886,    5068,    5075,    4870,    4839,    4888,    5057
     876,      10,       9,      30,      29,     100,     104,     175,     174,    3255,    3283,    3284,    3281,    4868,    5075,    5058,    5076,    4861,    4870,    5057,    5021
     877,      11,      10,      29,      28,      96,     100,     174,     173,    3256,    3281,    3282,    3279,    4859,    5076,    5022,    5077,    4852,    4861,    5021,    5009
     878,       6,      11,      28,       7,      79,      96,     173,      84,    3257,    3279,    3280,    3253,    4850,    5077,    5010,    4838,    4825,    4852,    5009,    4834
     879,       5,       2,       7,      27,      65,      54,      84,     172,    3167,    3252,    3278,    3276,    4716,    4832,    5012,    5078,    4714,    4700,    4834,    5004
     880,       4,       5,      27,      26,      64,      65,     172,     171,    3166,    3276,    3277,    3274,    4715,    5078,    5008,    5079,    4712,    4714,    5004,    4996
     881,       3,       4,      26,      25,      63,      64,     171,     170,    3165,    3274,    3275,    3272,    4713,    5079,    5061,    5080,    4710,    4712,    4996,    5060
     882,       1,       3,      25,      19,      59,      63,     170,     146,    3164,    3272,    3273,    3265,    4711,    5080,    5069,    4938,    4705,    4710,    5060,    4939
     883,     171,     194,     191,     185,     196,     219,     216,     210,    5000,    5001,    5002,    5003,    5085,    5086,    5087,    5088,    5081,    5082,    5083,    5084
     884,     172,     193,     194,     171,     197,     218,     219,     196,    5006,    5007,    5000,    5008,    5091,    5092,    5085,    5093,    5089,    5090,    5082,    5081
     885,      84,     173,     193,     172,      83,     198,     218,     197,    5010,    5011,    5006,    5012,    5095,    5096,    5091,    5097,    4833,    5094,    5090,    5089
     886,     194,     187,     188,     191,     219,     212,     213,     216,    5015,    5016,    5017,    5001,    5100,    5101,    5102,    5086,    5082,    5098,    5099,    5083
     887,     193,     186,     187,     194,     218,     211,     212,     219,    5019,    5020,    5015,    5007,    5104,    5105,    5100,    5092,    5090,    5103,    5098,    5082
     888,     173,     174,     186,     193,     198,     199,     211,     218,    5022,    5023,    5019,    5011,    5107,    5108,    5104,    5096,    5094,    5106,    5103,    5090
     889,     192,     190,     178,     179,     217,     215,     203,     204,    5028,    5029,    5030,    5031,    5113,    5114,    5115,    5116,    5109,    5110,    5111,    5112
     890,     185,     191,     190,     192,     210,     216,     215,     217,    5002,    5032,    5028,    5033,    5087,    5117,    5113,    5118,    5084,    5083,    5110,    5109
     891,     180,     185,     192,     179,     205,     210,     217,     204,    5035,    5033,    5031,    5036,    5120,    5118,    5116,    5121,    5119,    5084,    5109,    5112
     892,     191,     188,     189,     190,     216,     213,     214,     215,    5017,    5038,    5039,    5032,    5102,    5123,    5124,    5117,    5083,    5099,    5122,    5110
     893,     177,     178,     190,     189,     202,     203,     215,     214,    5041,    5029,    5039,    5042,    5126,    5114,    5124,    5127,    5125,    5111,    5110,    5122
     894,     184,     176,     177,     189,     209,     201,     202,     214,    5045,    5046,    5042,    5047,    5130,    5131,    5127,    5132,    5128,    5129,    5125,    5122
     895,     183,     184,     189,     188,     208,     209,     214,     213,    5049,    5047,    5038,    5050,    5134,    5132,    5123,    5135,    5133,    5128,    5122,    5099
     896,     182,     183,     188,     187,     207,     208,     213,     212,    5052,    5050,    5016,    5053,    5137,    5135,    5101,    5138,    5136,    5133,    5099,    5098
     897,     181,     182,     187,     186,     206,     207,     212,     211,    5055,    5053,    5020,    5056,    5140,    5138,    5105,    5141,    5139,    5136,    5098,    5103
     898,     174,     175,     181,     186,     199,     200,     206,     211,    5058,    5059,    5056,    5023,    5143,    5144,    5141,    5108,    5106,    5142,    5139,    5103
     899,     170,     171,     185,     180,     195,     196,     210,     205,    5061,    5003,    5035,    5062,    5146,    5088,    5120,    5147,    5145,    5081,    5084,    5119
     900,     135,     139,     176,     184,     134,     138,     201,     209,    4931,    5063,    5045,    5064,    4929,    5148,    5130,    5149,    4923,    4932,    5129,    5128
     901,     131,     135,     184,     183,     130,     134,     209,     208,    4922,    5064,    5049,    5065,    4920,    5149,    5134,    5150,    4914,    4923,    5128,    5133
     902,     127,     131,     183,     182,     126,     130,     208,     207,    4913,    5065,    5052,    5066,    4911,    5150,    5137,    5151,    4905,    4914,    5133,    5136
     903,     123,     127,     182,     181,     122,     126,     207,     206,    4904,    5066,    5055,    5067,    4902,    5151,    5140,    5152,    4896,    4905,    5136,    5139
     904,     119,     123,     181,     175,     118,     122,     206,     200,    4895,    5067,    5059,    5068,    4893,    5152,    5144,    5153,    4887,    4896,    5139,    5142
     905,     150,     146,     170,     180,     151,     147,     195,     205,    4947,    5069,    5062,    5070,    4949,    5154,    5147,    5155,    4950,    4941,    5145,    5119
     906,     154,     150,     180,     179,     155,     151,     205,     204,    4956,    5070,    5036,    5071,    4958,    5155,    5121,    5156,    4959,    4950,    5119,    5112
     907,     158,     154,     179,     178,     159,     155,     204,     203,    4965,    5071,    5030,    5072,    4967,    5156,    5115,    5157,    4968,    4959,    5112,    5111
     908,     162,     158,     178,     177,     163,     159,     203,     202,    4974,    5072,    5041,    5073,    4976,    5157,    5126,    5158,    4977,    4968,    5111,    5125
     909,     166,     162,     177,     176,     167,     163,     202,     201,    4983,    5073,    5046,    5074,    4985,    5158,    5131,    5159,    4986,    4977,    5125,    5129
     910,     109,     166,     176,     139,     108,     167,     201,     138,    4992,    5074,    5063,    4937,    4993,    5159,    5148,    4936,    4878,    4986,    5129,    4932
     911,     104,      86,     119,     175,     103,      87,     118,     200,    4874,    4886,    5068,    5075,    4873,    4884,    5153,    5160,    4869,    4840,    4887,    5142
     912,     100,     104,     175,     174,      99,     103,     200,     199,    4868,    5075,    5058,    5076,    4866,    5160,    5143,    5161,    4860,    4869,    5142,    5106
     913,      96,     100,     174,     173,      95,      99,     199,     198,    4859,    5076,    5022,    5077,    4857,    5161,    5107,    5162,    4851,    4860,    5106,    5094
     914,      79,      96,     173,      84,      78,      95,     198,      83,    4850,    5077,    5010,    4838,    4848,    5162,    5095,    4837,    4824,    4851,    5094,    4833
     915,      65,      54,      84,     172,      68,      53,      83,     197,    4716,    4832,    5012,    5078,    4723,    4830,    5097,    5163,    4721,    4699,    4833,    5089
     916,      64,      65,     172,     171,      67,      68,     197,     196,    4715,    5078,    5008,    5079,    4722,    5163,    5093,    5164,    4719,    4721,    5089,    5081
     917,      63,      64,     171,     170,      66,      67,     196,     195,    4713,    5079,    5061,    5080,    4720,    5164,    5146,    5165,    4717,    4719,    5081,    5145
     918,      59,      63,     170,     146,      60,      66,     195,     147,    4711,    5080,    5069,    4938,    4718,    5165,    5154,    4940,    4706,    4717,    5145,    4941
     919,     196,     219,     216,     210,     221,     244,     241,     235,    5085,    5086,    5087,    5088,    5170,    5171,    5172,    5173,    5166,    5167,    5168,    5169
     920,     197,     218,     219,     196,     222,     243,     244,     221,    5091,    5092,    5085,    5093,    5176,    5177,    5170,    5178,    5174,    5175,    5167,    5166
     921,      83,     198,     218,     197,      82,     223,     243,     222,    5095,    5096,    5091,    5097,    5180,    5181,    5176,    5182,    4831,    5179,    5175,    5174
     922,     219,     212,     213,     216,     244,     237,     238,     241,    5100,    5101,    5102,    5086,    5185,    5186,    5187,    5171,    5167,    5183,    5184,    5168
     923,     218,     211,     212,     219,     243,     236,     237,     244,    5104,    5105,    5100,    5092,    5189,    5190,    5185,    5177,    5175,    5188,    5183,    5167
     924,     198,     199,     211,     218,     223,     224,     236,     243,    5107,    5108,    5104,    5096,    5192,    5193,    5189,    5181,    5179,    5191,    5188,    5175
     925,     217,     215,     203,     204,     242,     240,     228,     229,    5113,    5114,    5115,    5116,    5198,    5199,    5200,    5201,    5194,    5195,    5196,    5197
     926,     210,     216,     215,     217,     235,     241,     240,     242,    5087,    5117,    5113,    5118,    5172,    5202,    5198,    5203,    5169,    5168,    5195,    5194
     927,     205,     210,     217,     204,     230,     235,     242,     229,    5120,    5118,    5116,    5121,    5205,    5203,    5201,    5206,    5204,    5169,    5194,    5197
     928,     216,     213,     214,     215,     241,     238,     239,     240,    5102,    5123,    5124,    5117,    5187,    5208,    5209,    5202,    5168,    5184,    5207,    5195
     929,     202,     203,     215,     214,     227,     228,     240,     239,    5126,    5114,    5124,    5127,    5211,    5199,    5209,    5212,    5210,    5196,    5195,    5207
     930,     209,     201,     202,     214,     234,     226,     227,     239,    5130,    5131,    5127,    5132,    5215,    5216,    5212,    5217,    5213,    5214,    5210,    5207
     931,     208,     209,     214,     213,     233,     234,     239,     238,    5134,    5132,    5123,    5135,    5219,    5217,    5208,    5220,    5218,    5213,    5207,    5184
     932,     207,     208,     213,     212,     232,     233,     238,     237,    5137,    5135,    5101,    5138,    5222,    5220,    5186,    5223,    5221,    5218,    5184,    5183
     933,     206,     207,     212,     211,     231,     232,     237,     236,    5140,    5138,    5105,    5141,    5225,    5223,    5190,    5226,    5224,    5221,    5183,    5188
     934,     199,     200,     206,     211,     224,     225,     231,     236,    5143,    5144,    5141,    5108,    5228,    5229,    5226,    5193,    5191,    5227,    5224,    5188
     935,     195,     196,     210,     205,     220,     221,     235,     230,    5146,    5088,    5120,    5147,    5231,    5173,    5205,    5232,    5230,    5166,    5169,    5204
     936,     134,     138,     201,     209,     133,     137,     226,     234,    4929,    5148,    5130,    5149,    4927,    5233,    5215,    5234,    4921,    4930,    5214,    5213
     937,     130,     134,     209,     208,     129,     133,     234,     233,    4920,    5149,    5134,    5150,    4918,    5234,    5219,    5235,    4912,    4921,    5213,    5218
     938,     126,     130,     208,     207,     125,     129,     233,     232,    4911,    5150,    5137,    5151,    4909,    5235,    5222,    5236,    4903,    4912,    5218,    5221
     939,     122,     126,     207,     206,     121,     125,     232,     231,    4902,    5151,    5140,    5152,    4900,    5236,    5225,    5237,    4894,    4903,    5221,    5224
     940,     118,     122,     206,     200,     117,     121,     231,     225,    4893,    5152,    5144,    5153,    4891,    5237,    5229,    5238,    4885,    4894,    5224,    5227
     941,     151,     147,     195,     205,     152,     148,     220,     230,    4949,    5154,    5147,    5155,    4951,    5239,    5232,    5240,    4952,    4943,    5230,    5204
     942,     155,     151,     205,     204,     156,     152,     230,     229,    4958,    5155,    5121,    5156,    4960,    5240,    5206,    5241,    4961,    4952,    5204,    5197
     943,     159,     155,     204,     203,     160,     156,     229,     228,    4967,    5156,    5115,    5157,    4969,    5241,    5200,    5242,    4970,    4961,    5197,    5196
     944,     163,     159,     203,     202,     164,     160,     228,     227,    4976,    5157,    5126,    5158,    4978,    5242,    5211,    5243,    4979,    4970,    5196,    5210
     945,     167,     163,     202,     201,     168,     164,     227,     226,    4985,    5158,    5131,    5159,    4987,    5243,    5216,    5244,    4988,    4979,    5210,    5214
     946,     108,     167,     201,     138,     107,     168,     226,     137,    4993,    5159,    5148,    4936,    4994,    5244,    5233,    4935,    4877,    4988,    5214,    4930
     947,     103,      87,     118,     200,     102,      88,     117,     225,    4873,    4884,    5153,    5160,    4872,    4882,    5238,    5245,    4867,    4841,    4885,    5227
     948,      99,     103,     200,     199,      98,     102,     225,     224,    4866,    5160,    5143,    5161,    4864,    5245,    5228,    5246,    4858,    4867,    5227,    5191
     949,      95,      99,     199,     198,      94,      98,     224,     223,    4857,    5161,    5107,    5162,    4855,    5246,    5192,    5247,    4849,    4858,    5191,    5179
     950,      78,      95,     198,      83,      77,      94,     223,      82,    4848,    5162,    5095,    4837,    4846,    5247,    5180,    4836,    4823,    4849,    5179,    4831
     951,      68,      53,      83,     197,      71,      52,      82,     222,    4723,    4830,    5097,    5163,    4730,    4828,    5182,    5248,    4728,    4698,    4831,    5174
     952,      67,      68,     197,     196,      70,      71,     222,     221,    4722,    5163,    5093,    5164,    4729,    5248,    5178,    5249,    4726,    4728,    5174,    5166
     953,      66,      67,     196,     195,      69,      70,     221,     220,    4720,    5164,    5146,    5165,    4727,    5249,    5231,    5250,    4724,    4726,    5166,    5230
     954,      60,      66,     195,     147,      61,      69,     220,     148,    4718,    5165,    5154,    4940,    4725,    5250,    5239,    4942,    4707,    4724,    5230,    4943
     955,     221,     244,     241,     235,     246,     269,     266,     260,    5170,    5171,    5172,    5173,    5255,    5256,    5257,    5258,    5251,    5252,    5253,    5254
     956,     222,     243,     244,     221,     247,     268,     269,     246,    5176,    5177,    5170,    5178,    5261,    5262,    5255,    5263,    5259,    5260,    5252,    5251
     957,      82,     223,     243,     222,      81,     248,     268,     247,    5180,    5181,    5176,    5182,    5265,    5266,    5261,    5267,    4829,    5264,    5260,    5259
     958,     244,     237,     238,     241,     269,     262,     263,     266,    5185,    5186,    5187,    5171,    5270,    5271,    5272,    5256,    5252,    5268,    5269,    5253
     959,     243,     236,     237,     244,     268,     261,     262,     269,    5189,    5190,    5185,    5177,    5274,    5275,    5270,    5262,    5260,    5273,    5268,    5252
     960,     223,     224,     236,     243,     248,     249,     261,     268,    5192,    5193,    5189,    5181,    5277,    5278,    5274,    5266,    5264,    5276,    5273,    5260
     961,     242,     240,     228,     229,     267,     265,     253,     254,    5198,    5199,    5200,    5201,    5283,    5284,    5285,    5286,    5279,    5280,    5281,    5282
     962,     235,     241,     240,     242,     260,     266,     265,     267,    5172,    5202,    5198,    5203,    5257,    5287,    5283,    5288,    5254,    5253,    5280,    5279
     963,     230,     235,     242,     229,     255,     260,     267,     254,    5205,    5203,    5201,    5206,    5290,    5288,    5286,    5291,    5289,    5254,    5279,    5282
     964,     241,     238,     239,     240,     266,     263,     264,     265,    5187,    5208,    5209,    5202,    5272,    5293,    5294,    5287,    5253,    5269,    5292,    5280
     965,     227,     228,     240,     239,     252,     253,     265,     264,    5211,    5199,    5209,    5212,    5296,    5284,    5294,    5297,    5295,    5281,    5280,    5292
     966,     234,     226,     227,     239,     259,     251,     252,     264,    5215,    5216,    5212,    5217,    5300,    5301,    5297,    5302,    5298,    5299,    5295,    5292
     967,     233,     234,     239,     238,     258,     259,     264,     263,    5219,    5217,    5208,    5220,    5304,    5302,    5293,    5305,    5303,    5298,    5292,    5269
     968,     232,     233,     238,     237,     257,     258,     263,     262,    5222,    5220,    5186,    5223,    5307,    5305,    5271,    5308,    5306,    5303,    5269,    5268
     969,     231,     232,     237,     236,     256,     257,     262,     261,    5225,    5223,    5190,    5226,    5310,    5308,    5275,    5311,    5309,    5306,    5268,    5273
     970,     224,     225,     231,     236,     249,     250,     256,     261,    5228,    5229,    5226,    5193,    5313,    5314,    5311,    5278,    5276,    5312,    5309,    5273
     971,     220,     221,     235,     230,     245,     246,     260,     255,    5231,    5173,    5205,    5232,    5316,    5258,    5290,    5317,    5315,    5251,    5254,    5289
     972,     133,     137,     226,     234,     132,     136,     251,     259,    4927,    5233,    5215,    5234,    4925,    5318,    5300,    5319,    4919,    4928,    5299,    5298
     973,     129,     133,     234,     233,     128,     132,     259,     258,    4918,    5234,    5219,    5235,    4916,    5319,    5304,    5320,    4910,    4919,    5298,    5303
     974,     125,     129,     233,     232,     124,     128,     258,     257,    4909,    5235,    5222,    5236,    4907,    5320,    5307,    5321,    4901,    4910,    5303,    5306
     975,     121,     125,     232,     231,     120,     124,     257,     256,    4900,    5236,    5225,    5237,    4898,    5321,    5310,    5322,    4892,    4901,    5306,    5309
     976,     117,     121,     231,     225,     116,     120,     256,     250,    4891,    5237,    5229,    5238,    4889,    5322,    5314,    5323,    4883,    4892,    5309,    5312
     977,     152,     148,     220,     230,     153,     149,     245,     255,    4951,    5239,    5232,    5240,    4953,    5324,    5317,    5325,    4954,    4945,    5315,    5289
     978,     156,     152,     230,     229,     157,     153,     255,     254,    4960,    5240,    5206,    5241,    4962,    5325,    5291,    5326,    4963,    4954,    5289,    5282
     979,     160,     156,     229,     228,     161,     157,     254,     253,    4969,    5241,    5200,    5242,    4971,    5326,    5285,    5327,    4972,    4963,    5282,    5281
     980,     164,     160,     228,     227,     165,     161,     253,     252,    4978,    5242,    5211,    5243,    4980,    5327,    5296,    5328,    4981,    4972,    5281,    5295
     981,     168,     164,     227,     226,     169,     165,     252,     251,    4987,    5243,    5216,    5244,    4989,    5328,    5301,    5329,    4990,    4981,    5295,    5299
     982,     107,     168,     226,     137,     106,     169,     251,     136,    4994,    5244,    5233,    4935,    4995,    5329,    5318,    4934,    4876,    4990,    5299,    4928
     983,     102,      88,     117,     225,     101,      89,     116,     250,    4872,    4882,    5238,    5245,    4871,    4880,    5323,    5330,    4865,    4842,    4883,    5312
     984,      98,     102,     225,     224,      97,     101,     250,     249,    4864,    5245,    5228,    5246,    4862,    5330,    5313,    5331,    4856,    4865,    5312,    5276
     985,      94,      98,     224,     223,      93,      97,     249,     248,    4855,    5246,    5192,    5247,    4853,    5331,    5277,    5332,    4847,    4856,    5276,    5264
     986,      77,      94,     223,      82,      76,      93,     248,      81,    4846,    5247,    5180,    4836,    4844,    5332,    5265,    4835,    4822,    4847,    5264,    4829
     987,      71,      52,      82,     222,      74,      51,      81,     247,    4730,    4828,    5182,    5248,    4737,    4826,    5267,    5333,    4735,    4697,    4829,    5259
     988,      70,      71,     222,     221,      73,      74,     247,     246,    4729,    5248,    5178,    5249,    4736,    5333,    5263,    5334,    4733,    4735,    5259,    5251
     989,      69,      70,     221,     220,      72,      73,     246,     245,    4727,    5249,    5231,    5250,    4734,    5334,    5316,    5335,    4731,    4733,    5251,    5315
     990,      61,      69,     220,     148,      62,      72,     245,     149,    4725,    5250,    5239,    4942,    4732,    5335,    5324,    4944,    4708,    4731,    5315,    4945
     991,     246,     269,     266,     260,     271,     294,     291,     285,    5255,    5256,    5257,    5258,    4761,    4762,    4763,    4764,    5336,    5337,    5338,    5339
     992,     247,     268,     269,     246,     272,     293,     294,     271,    5261,    5262,    5255,    5263,    4765,    4766,    4761,    4767,    5340,    5341,    5337,    5336
     993,      81,     248,     268,     247,      80,     273,     293,     272,    5265,    5266,    5261,    5267,    4768,    4769,    4765,    4770,    4827,    5342,    5341,    5340
     994,     269,     262,     263,     266,     294,     287,     288,     291,    5270,    5271,    5272,    5256,    4771,    4772,    4773,    4762,    5337,    5343,    5344,    5338
     995,     268,     261,     262,     269,     293,     286,     287,     294,    5274,    5275,    5270,    5262,    4774,    4775,    4771,    4766,    5341,    5345,    5343,    5337
     996,     248,     249,     261,     268,     273,     274,     286,     293,    5277,    5278,    5274,    5266,    4776,    4777,    4774,    4769,    5342,    5346,    5345,    5341
     997,     267,     265,     253,     254,     292,     290,     278,     279,    5283,    5284,    5285,    5286,    4778,    4779,    4780,    4781,    5347,    5348,    5349,    5350
     998,     260,     266,     265,     267,     285,     291,     290,     292,    5257,    5287,    5283,    5288,    4763,    4782,    4778,    4783,    5339,    5338,    5348,    5347
     999,     255,     260,     267,     254,     280,     285,     292,     279,    5290,    5288,    5286,    5291,    4784,    4783,    4781,    4785,    5351,    5339,    5347,    5350
    1000,     266,     263,     264,     265,     291,     288,     289,     290,    5272,    5293,    5294,    5287,    4773,    4786,    4787,    4782,    5338,    5344,    5352,    5348
    1001,     252,     253,     265,     264,     277,     278,     290,     289,    5296,    5284,    5294,    5297,    4788,    4779,    4787,    4789,    5353,    5349,    5348,    5352
    1002,     259,     251,     252,     264,     284,     276,     277,     289,    5300,    5301,    5297,    5302,    4790,    4791,    4789,    4792,    5354,    5355,    5353,    5352
    1003,     258,     259,     264,     263,     283,     284,     289,     288,    5304,    5302,    5293,    5305,    4793,    4792,    4786,    4794,    5356,    5354,    5352,    5344
    1004,     257,     258,     263,     262,     282,     283,     288,     287,    5307,    5305,    5271,    5308,    4795,    4794,    4772,    4796,    5357,    5356,    5344,    5343
    1005,     256,     257,     262,     261,     281,     282,     287,     286,    5310,    5308,    5275,    5311,    4797,    4796,    4775,    4798,    5358,    5357,    5343,    5345
    1006,     249,     250,     256,     261,     274,     275,     281,     286,    5313,    5314,    5311,    5278,    4799,    4800,    4798,    4777,    5346,    5359,    5358,    5345
    1007,     245,     246,     260,     255,     270,     271,     285,     280,    5316,    5258,    5290,    5317,    4801,    4764,    4784,    4802,    5360,    5336,    5339,    5351
    1008,     132,     136,     251,     259,     114,     115,     276,     284,    4925,    5318,    5300,    5319,    4752,    4803,    4790,    4804,    4917,    4926,    5355,    5354
    1009,     128,     132,     259,     258,     113,     114,     284,     283,    4916,    5319,    5304,    5320,    4751,    4804,    4793,    4805,    4908,    4917,    5354,    5356
    1010,     124,     128,     258,     257,     112,     113,     283,     282,    4907,    5320,    5307,    5321,    4750,    4805,    4795,    4806,    4899,    4908,    5356,    5357
    1011,     120,     124,     257,     256,     111,     112,     282,     281,    4898,    5321,    5310,    5322,    4749,    4806,    4797,    4807,    4890,    4899,    5357,    5358
    1012,     116,     120,     256,     250,     110,     111,     281,     275,    4889,    5322,    5314,    5323,    4748,    4807,    4800,    4808,    4881,    4890,    5358,    5359
    1013,     153,     149,     245,     255,     141,     140,     270,     280,    4953,    5324,    5317,    5325,    4755,    4809,    4802,    4810,    4955,    4946,    5360,    5351
    1014,     157,     153,     255,     254,     142,     141,     280,     279,    4962,    5325,    5291,    5326,    4756,    4810,    4785,    4811,    4964,    4955,    5351,    5350
    1015,     161,     157,     254,     253,     143,     142,     279,     278,    4971,    5326,    5285,    5327,    4757,    4811,    4780,    4812,    4973,    4964,    5350,    5349
    1016,     165,     161,     253,     252,     144,     143,     278,     277,    4980,    5327,    5296,    5328,    4758,    4812,    4788,    4813,    4982,    4973,    5349,    5353
    1017,     169,     165,     252,     251,     145,     144,     277,     276,    4989,    5328,    5301,    5329,    4759,    4813,    4791,    4814,    4991,    4982,    5353,    5355
    1018,     106,     169,     251,     136,     105,     145,     276,     115,    4995,    5329,    5318,    4934,    4760,    4814,    4803,    4753,    4875,    4991,    5355,    4926
    1019,     101,      89,     116,     250,      90,      85,     110,     275,    4871,    4880,    5323,    5330,    4743,    4747,    4808,    4815,    4863,    4843,    4881,    5359
    1020,      97,     101,     250,     249,      91,      90,     275,     274,    4862,    5330,    5313,    5331,    4744,    4815,    4799,    4816,    4854,    4863,    5359,    5346
    1021,      93,      97,     249,     248,      92,      91,     274,     273,    4853,    5331,    5277,    5332,    4745,    4816,    4776,    4817,    4845,    4854,    5346,    5342
    1022,      76,      93,     248,      81,      75,      92,     273,      80,    4844,    5332,    5265,    4835,    4746,    4817,    4768,    4742,    4821,    4845,    5342,    4827
    1023,      74,      51,      81,     247,      58,      50,      80,     272,    4737,    4826,    5267,    5333,    4704,    4741,    4770,    4818,    4740,    4696,    4827,    5340
    1024,      73,      74,     247,     246,      57,      58,     272,     271,    4736,    5333,    5263,    5334,    4703,    4818,    4767,    4819,    4739,    4740,    5340,    5336
    1025,      72,      73,     246,     245,      56,      57,     271,     270,    4734,    5334,    5316,    5335,    4702,    4819,    4801,    4820,    4738,    4739,    5336,    5360
    1026,      62,      72,     245,     149,      55,      56,     270,     140,    4732,    5335,    5324,    4944,    4701,    4820,    4809,    4754,    4709,    4738,    5360,    4946
    1027,    1266,    1253,    1264,    1276,    1207,    1206,    1208,    1209,    5492,    5463,    5505,    5506,    5464,    5419,    5468,    5467,    5472,    5430,    5453,    5507
    1028,    1242,    1211,    1266,    1276,    1205,    1204,    1207,    1209,    5405,    5471,    5506,    5508,    5373,    5465,    5467,    5466,    5407,    5361,    5472,    5507
    1029,    1264,    1231,    1242,    1276,    1208,    1203,    1205,    1209,    5451,    5417,    5508,    5505,    5418,    5372,    5466,    5468,    5453,    5384,    5407,    5507
    1030,    1267,    1252,    1263,    1277,    1266,    1253,    1264,    1276,    5493,    5462,    5509,    5510,    5492,    5463,    5505,    5506,    5474,    5429,    5452,    5511
    1031,    1241,    1212,    1267,    1277,    1242,    1211,    1266,    1276,    5403,    5473,    5510,    5512,    5405,    5471,    5506,    5508,    5406,    5362,    5474,    5511
    1032,    1263,    1230,    1241,    1277,    1264,    1231,    1242,    1276,    5449,    5416,    5512,    5509,    5451,    5417,    5508,    5505,    5452,    5383,    5406,    5511
    1033,    1268,    1251,    1262,    1278,    1267,    1252,    1263,    1277,    5494,    5461,    5513,    5514,    5493,    5462,    5509,    5510,    5476,    5428,    5450,    5515
    1034,    1240,    1213,    1268,    1278,    1241,    1212,    1267,    1277,    5401,    5475,    5514,    5516,    5403,    5473,    5510,    5512,    5404,    5363,    5476,    5515
    1035,    1262,    1229,    1240,    1278,    1263,    1230,    1241,    1277,    5447,    5415,    5516,    5513,    5449,    5416,    5512,    5509,    5450,    5382,    5404,    5515
    1036,    1269,    1250,    1261,    1279,    1268,    1251,    1262,    1278,    5495,    5460,    5517,    5518,    5494,    5461,    5513,    5514,    5478,    5427,    5448,    5519
    1037,    1239,    1214,    1269,    1279,    1240,    1213,    1268,    1278,    5399,    5477,    5518,    5520,    5401,    5475,    5514,    5516,    5402,    5364,    5478,    5519
    1038,    1261,    1228,    1239,    1279,    1262,    1229,    1240,    1278,    5445,    5414,    5520,    5517,    5447,    5415,    5516,    5513,    5448,    5381,    5402,    5519
    1039,    1270,    1249,    1260,    1280,    1269,    1250,    1261,    1279,    5496,    5459,    5521,    5522,    5495,    5460,    5517,    5518,    5480,    5426,    5446,    5523
    1040,    1238,    1215,    1270,    1280,    1239,    1214,    1269,    1279,    5397,    5479,    5522,    5524,    5399,    5477,    5518,    5520,    5400,    5365,    5480,    5523
    1041,    1260,    1227,    1238,    1280,    1261,    1228,    1239,    1279,    5443,    5413,    5524,    5521,    5445,    5414,    5520,    5517,    5446,    5380,    5400,    5523
    1042,    1271,    1248,    1259,    1281,    1270,    1249,    1260,    1280,    5497,    5458,    5525,    5526,    5496,    5459,    5521,    5522,    5482,    5425,    5444,    5527
    1043,    1237,    1216,    1271,    1281,    1238,    1215,    1270,    1280,    5395,    5481,    5526,    5528,    5397,    5479,    5522,    5524,    5398,    5366,    5482,    5527
    1044,    1259,    1226,    1237,    1281,    1260,    1227,    1238,    1280,    5441,    5412,    5528,    5525,    5443,    5413,    5524,    5521,    5444,    5379,    5398,    5527
    1045,    1272,    1247,    1258,    1282,    1271,    1248,    1259,    1281,    5498,    5457,    5529,    5530,    5497,    5458,    5525,    5526,    5484,    5424,    5442,    5531
    1046,    1236,    1217,    1272,    1282,    1237,    1216,    1271,    1281,    5393,    5483,    5530,    5532,    5395,    5481,    5526,    5528,    5396,    5367,    5484,    5531
    1047,    1258,    1225,    1236,    1282,    1259,    1226,    1237,    1281,    5439,    5411,    5532,    5529,    5441,    5412,    5528,    5525,    5442,    5378,    5396,    5531
    1048,    1273,    1246,    1257,    1283,    1272,    1247,    1258,    1282,    5499,    5456,    5533,    5534,    5498,    5457,    5529,    5530,    5486,    5423,    5440,    5535
    1049,    1235,    1218,    1273,    1283,    1236,    1217,    1272,    1282,    5391,    5485,    5534,    5536,    5393,    5483,    5530,    5532,    5394,    5368,    5486,    5535
    1050,    1257,    1224,    1235,    1283,    1258,    1225,    1236,    1282,    5437,    5410,    5536,    5533,    5439,    5411,    5532,    5529,    5440,    5377,    5394,    5535
    1051,    1274,    1245,    1256,    1284,    1273,    1246,    1257,    1283,    5500,    5455,    5537,    5538,    5499,    5456,    5533,    5534,    5488,    5422,    5438,    5539
    1052,    1234,    1219,    1274,    1284,    1235,    1218,    1273,    1283,    5389,    5487,    5538,    5540,    5391,    5485,    5534,    5536,    5392,    5369,    5488,    5539
    1053,    1256,    1223,    1234,    1284,    1257,    1224,    1235,    1283,    5435,    5409,    5540,    5537,    5437,    5410,    5536,    5533,    5438,    5376,    5392,    5539
    1054,    1275,    1244,    1255,    1285,    1274,    1245,    1256,    1284,    5501,    5454,    5541,    5542,    5500,    5455,    5537,    5538,    5490,    5421,    5436,    5543
    1055,    1233,    1220,    1275,    1285,    1234,    1219,    1274,    1284,    5387,    5489,    5542,    5544,    5389,    5487,    5538,    5540,    5390,    5370,    5490,    5543
    1056,    1255,    1222,    1233,    1285,    1256,    1223,    1234,    1284,    5433,    5408,    5544,    5541,    5435,    5409,    5540,    5537,    5436,    5375,    5390,    5543
    1057,    1265,    1243,    1254,    1286,    1275,    1244,    1255,    1285,    5470,    5431,    5503,    5502,    5501,    5454,    5541,    5542,    5491,    5420,    5434,    5545
    1058,    1232,    1210,    1265,    1286,    1233,    1220,    1275,    1285,    5385,    5469,    5502,    5504,    5387,    5489,    5542,    5544,    5388,    5371,    5491,    5545
    1059,    1254,    1221,    1232,    1286,    1255,    1222,    1233,    1285,    5432,    5386,    5504,    5503,    5433,    5408,    5544,    5541,    5434,    5374,    5388,    5545
    1060,     295,    2534,    2594,     351,     309,    2584,    2655,     371,    5557,    5687,    5689,    3333,    5667,    5833,    5834,    3363,    3163,    5672,    5832,    3365
    1061,    2534,    2533,    2593,    2594,    2584,    2583,    2656,    2655,    5556,    5685,    5688,    5687,    5666,    5836,    5837,    5833,    5672,    5671,    5835,    5832
    1062,    2533,    2532,    2592,    2593,    2583,    2582,    2657,    2656,    5555,    5683,    5686,    5685,    5664,    5839,    5840,    5836,    5671,    5670,    5838,    5835
    1063,    2532,    2531,    2591,    2592,    2582,    2581,    2658,    2657,    5554,    5681,    5684,    5683,    5662,    5842,    5843,    5839,    5670,    5669,    5841,    5838
    1064,    2531,    2530,    2590,    2591,    2581,    2580,    2659,    2658,    5553,    5679,    5682,    5681,    5660,    5845,    5846,    5842,    5669,    5668,    5844,    5841
    1065,    2530,    1221,    1254,    2590,    2580,    1222,    1255,    2659,    5552,    5432,    5680,    5679,    5658,    5433,    5847,    5845,    5668,    5374,    5434,    5844
    1066,     351,    2594,    2589,     350,     371,    2655,    2600,     361,    5689,    5694,    5678,    3332,    5834,    5848,    5701,    3375,    3365,    5832,    5702,    3344
    1067,    2594,    2593,    2588,    2589,    2655,    2656,    2610,    2600,    5688,    5693,    5677,    5694,    5837,    5849,    5722,    5848,    5832,    5835,    5723,    5702
    1068,    2593,    2592,    2587,    2588,    2656,    2657,    2620,    2610,    5686,    5692,    5676,    5693,    5840,    5850,    5743,    5849,    5835,    5838,    5744,    5723
    1069,    2592,    2591,    2586,    2587,    2657,    2658,    2630,    2620,    5684,    5691,    5675,    5692,    5843,    5851,    5764,    5850,    5838,    5841,    5765,    5744
    1070,    2591,    2590,    2585,    2586,    2658,    2659,    2640,    2630,    5682,    5690,    5674,    5691,    5846,    5852,    5785,    5851,    5841,    5844,    5786,    5765
    1071,    2590,    1254,    1243,    2585,    2659,    1255,    1244,    2640,    5680,    5431,    5673,    5690,    5847,    5454,    5806,    5852,    5844,    5434,    5420,    5786
    1072,     309,    2584,    2655,     371,     308,    2579,    2660,     370,    5667,    5833,    5834,    3363,    5656,    5854,    5855,    3361,    3162,    5665,    5853,    3364
    1073,    2584,    2583,    2656,    2655,    2579,    2578,    2661,    2660,    5666,    5836,    5837,    5833,    5655,    5857,    5858,    5854,    5665,    5663,    5856,    5853
    1074,    2583,    2582,    2657,    2656,    2578,    2577,    2662,    2661,    5664,    5839,    5840,    5836,    5653,    5860,    5861,    5857,    5663,    5661,    5859,    5856
    1075,    2582,    2581,    2658,    2657,    2577,    2576,    2663,    2662,    5662,    5842,    5843,    5839,    5651,    5863,    5864,    5860,    5661,    5659,    5862,    5859
    1076,    2581,    2580,    2659,    2658,    2576,    2575,    2664,    2663,    5660,    5845,    5846,    5842,    5649,    5866,    5867,    5863,    5659,    5657,    5865,    5862
    1077,    2580,    1222,    1255,    2659,    2575,    1223,    1256,    2664,    5658,    5433,    5847,    5845,    5647,    5435,    5868,    5866,    5657,    5375,    5436,    5865
    1078,     371,    2655,    2600,     361,     370,    2660,    2601,     360,    5834,    5848,    5701,    3375,    5855,    5869,    5703,    3374,    3364,    5853,    5704,    3343
    1079,    2655,    2656,    2610,    2600,    2660,    2661,    2611,    2601,    5837,    5849,    5722,    5848,    5858,    5870,    5724,    5869,    5853,    5856,    5725,    5704
    1080,    2656,    2657,    2620,    2610,    2661,    2662,    2621,    2611,    5840,    5850,    5743,    5849,    5861,    5871,    5745,    5870,    5856,    5859,    5746,    5725
    1081,    2657,    2658,    2630,    2620,    2662,    2663,    2631,    2621,    5843,    5851,    5764,    5850,    5864,    5872,    5766,    5871,    5859,    5862,    5767,    5746
    1082,    2658,    2659,    2640,    2630,    2663,    2664,    2641,    2631,    5846,    5852,    5785,    5851,    5867,    5873,    5787,    5872,    5862,    5865,    5788,    5767
    1083,    2659,    1255,    1244,    2640,    2664,    1256,    1245,    2641,    5847,    5454,    5806,    5852,    5868,    5455,    5807,    5873,    5865,    5436,    5421,    5788
    1084,     308,    2579,    2660,     370,     307,    2574,    2665,     369,    5656,    5854,    5855,    3361,    5645,    5875,    5876,    3359,    3161,    5654,    5874,    3362
    1085,    2579,    2578,    2661,    2660,    2574,    2573,    2666,    2665,    5655,    5857,    5858,    5854,    5644,    5878,    5879,    5875,    5654,    5652,    5877,    5874
    1086,    2578,    2577,    2662,    2661,    2573,    2572,    2667,    2666,    5653,    5860,    5861,    5857,    5642,    5881,    5882,    5878,    5652,    5650,    5880,    5877
    1087,    2577,    2576,    2663,    2662,    2572,    2571,    2668,    2667,    5651,    5863,    5864,    5860,    5640,    5884,    5885,    5881,    5650,    5648,    5883,    5880
    1088,    2576,    2575,    2664,    2663,    2571,    2570,    2669,    2668,    5649,    5866,    5867,    5863,    5638,    5887,    5888,    5884,    5648,    5646,    5886,    5883
    1089,    2575,    1223,    1256,    2664,    2570,    1224,    1257,    2669,    5647,    5435,    5868,    5866,    5636,    5437,    5889,    5887,    5646,    5376,    5438,    5886
    1090,     370,    2660,    2601,     360,     369,    2665,    2602,     359,    5855,    5869,    5703,    3374,    5876,    5890,    5705,    3373,    3362,    5874,    5706,    3342
    1091,    2660,    2661,    2611,    2601,    2665,    2666,    2612,    2602,    5858,    5870,    5724,    5869,    5879,    5891,    5726,    5890,    5874,    5877,    5727,    5706
    1092,    2661,    2662,    2621,    2611,    2666,    2667,    2622,    2612,    5861,    5871,    5745,    5870,    5882,    5892,    5747,    5891,    5877,    5880,    5748,    5727
    1093,    2662,    2663,    2631,    2621,    2667,    2668,    2632,    2622,    5864,    5872,    5766,    5871,    5885,    5893,    5768,    5892,    5880,    5883,    5769,    5748
    1094,    2663,    2664,    2641,    2631,    2668,    2669,    2642,    2632,    5867,    5873,    5787,    5872,    5888,    5894,    5789,    5893,    5883,    5886,    5790,    5769
    1095,    2664,    1256,    1245,    2641,    2669,    1257,    1246,    2642,    5868,    5455,    5807,    5873,    5889,    5456,    5808,    5894,    5886,    5438,    5422,    5790
    1096,     307,    2574,    2665,     369,     306,    2569,    2670,     368,    5645,    5875,    5876,    3359,    5634,    5896,    5897,    3357,    3160,    5643,    5895,    3360
    1097,    2574,    2573,    2666,    2665,    2569,    2568,    2671,    2670,    5644,    5878,    5879,    5875,    5633,    5899,    5900,    5896,    5643,    5641,    5898,    5895
    1098,    2573,    2572,    2667,    2666,    2568,    2567,    2672,    2671,    5642,    5881,    5882,    5878,    5631,    5902,    5903,    5899,    5641,    5639,    5901,    5898
    1099,    2572,    2571,    2668,    2667,    2567,    2566,    2673,    2672,    5640,    5884,    5885,    5881,    5629,    5905,    5906,    5902,    5639,    5637,    5904,    5901
    1100,    2571,    2570,    2669,    2668,    2566,    2565,    2674,    2673,    5638,    5887,    5888,    5884,    5627,    5908,    5909,    5905,    5637,    5635,    5907,    5904
    1101,    2570,    1224,    1257,    2669,    2565,    1225,    1258,    2674,    5636,    5437,    5889,    5887,    5625,    5439,    5910,    5908,    5635,    5377,    5440,    5907
    1102,     369,    2665,    2602,     359,     368,    2670,    2603,     358,    5876,    5890,    5705,    3373,    5897,    5911,    5707,    3372,    3360,    5895,    5708,    3341
    1103,    2665,    2666,    2612,    2602,    2670,    2671,    2613,    2603,    5879,    5891,    5726,    5890,    5900,    5912,    5728,    5911,    5895,    5898,    5729,    5708
    1104,    2666,    2667,    2622,    2612,    2671,    2672,    2623,    2613,    5882,    5892,    5747,    5891,    5903,    5913,    5749,    5912,    5898,    5901,    5750,    5729
    1105,    2667,    2668,    2632,    2622,    2672,    2673,    2633,    2623,    5885,    5893,    5768,    5892,    5906,    5914,    5770,    5913,    5901,    5904,    5771,    5750
    1106,    2668,    2669,    2642,    2632,    2673,    2674,    2643,    2633,    5888,    5894,    5789,    5893,    5909,    5915,    5791,    5914,    5904,    5907,    5792,    5771
    1107,    2669,    1257,    1246,    2642,    2674,    1258,    1247,    2643,    5889,    5456,    5808,    5894,    5910,    5457,    5809,    5915,    5907,    5440,    5423,    5792
    1108,     306,    2569,    2670,     368,     305,    2564,    2675,     367,    5634,    5896,    5897,    3357,    5623,    5917,    5918,    3355,    3159,    5632,    5916,    3358
    1109,    2569,    2568,    2671,    2670,    2564,    2563,    2676,    2675,    5633,    5899,    5900,    5896,    5622,    5920,    5921,    5917,    5632,    5630,    5919,    5916
    1110,    2568,    2567,    2672,    2671,    2563,    2562,    2677,    2676,    5631,    5902,    5903,    5899,    5620,    5923,    5924,    5920,    5630,    5628,    5922,    5919
    1111,    2567,    2566,    2673,    2672,    2562,    2561,    2678,    2677,    5629,    5905,    5906,    5902,    5618,    5926,    5927,    5923,    5628,    5626,    5925,    5922
    1112,    2566,    2565,    2674,    2673,    2561,    2560,    2679,    2678,    5627,    5908,    5909,    5905,    5616,    5929,    5930,    5926,    5626,    5624,    5928,    5925
    1113,    2565,    1225,    1258,    2674,    2560,    1226,    1259,    2679,    5625,    5439,    5910,    5908,    5614,    5441,    5931,    5929,    5624,    5378,    5442,    5928
    1114,     368,    2670,    2603,     358,     367,    2675,    2604,     357,    5897,    5911,    5707,    3372,    5918,    5932,    5709,    3371,    3358,    5916,    5710,    3340
    1115,    2670,    2671,    2613,    2603,    2675,    2676,    2614,    2604,    5900,    5912,    5728,    5911,    5921,    5933,    5730,    5932,    5916,    5919,    5731,    5710
    1116,    2671,    2672,    2623,    2613,    2676,    2677,    2624,    2614,    5903,    5913,    5749,    5912,    5924,    5934,    5751,    5933,    5919,    5922,    5752,    5731
    1117,    2672,    2673,    2633,    2623,    2677,    2678,    2634,    2624,    5906,    5914,    5770,    5913,    5927,    5935,    5772,    5934,    5922,    5925,    5773,    5752
    1118,    2673,    2674,    2643,    2633,    2678,    2679,    2644,    2634,    5909,    5915,    5791,    5914,    5930,    5936,    5793,    5935,    5925,    5928,    5794,    5773
    1119,    2674,    1258,    1247,    2643,    2679,    1259,    1248,    2644,    5910,    5457,    5809,    5915,    5931,    5458,    5810,    5936,    5928,    5442,    5424,    5794
    1120,     305,    2564,    2675,     367,     304,    2559,    2680,     366,    5623,    5917,    5918,    3355,    5612,    5938,    5939,    3353,    3158,    5621,    5937,    3356
    1121,    2564,    2563,    2676,    2675,    2559,    2558,    2681,    2680,    5622,    5920,    5921,    5917,    5611,    5941,    5942,    5938,    5621,    5619,    5940,    5937
    1122,    2563,    2562,    2677,    2676,    2558,    2557,    2682,    2681,    5620,    5923,    5924,    5920,    5609,    5944,    5945,    5941,    5619,    5617,    5943,    5940
    1123,    2562,    2561,    2678,    2677,    2557,    2556,    2683,    2682,    5618,    5926,    5927,    5923,    5607,    5947,    5948,    5944,    5617,    5615,    5946,    5943
    1124,    2561,    2560,    2679,    2678,    2556,    2555,    2684,    2683,    5616,    5929,    5930,    5926,    5605,    5950,    5951,    5947,    5615,    5613,    5949,    5946
    1125,    2560,    1226,    1259,    2679,    2555,    1227,    1260,    2684,    5614,    5441,    5931,    5929,    5603,    5443,    5952,    5950,    5613,    5379,    5444,    5949
    1126,     367,    2675,    2604,     357,     366,    2680,    2605,     356,    5918,    5932,    5709,    3371,    5939,    5953,    5711,    3370,    3356,    5937,    5712,    3339
    1127,    2675,    2676,    2614,    2604,    2680,    2681,    2615,    2605,    5921,    5933,    5730,    5932,    5942,    5954,    5732,    5953,    5937,    5940,    5733,    5712
    1128,    2676,    2677,    2624,    2614,    2681,    2682,    2625,    2615,    5924,    5934,    5751,    5933,    5945,    5955,    5753,    5954,    5940,    5943,    5754,    5733
    1129,    2677,    2678,    2634,    2624,    2682,    2683,    2635,    2625,    5927,    5935,    5772,    5934,    5948,    5956,    5774,    5955,    5943,    5946,    5775,    5754
    1130,    2678,    2679,    2644,    2634,    2683,    2684,    2645,    2635,    5930,    5936,    5793,    5935,    5951,    5957,    5795,    5956,    5946,    5949,    5796,    5775
    1131,    2679,    1259,    1248,    2644,    2684,    1260,    1249,    2645,    5931,    5458,    5810,    5936,    5952,    5459,    5811,    5957,    5949,    5444,    5425,    5796
    1132,     304,    2559,    2680,     366,     303,    2554,    2685,     365,    5612,    5938,    5939,    3353,    5601,    5959,    5960,    3351,    3157,    5610,    5958,    3354
    1133,    2559,    2558,    2681,    2680,    2554,    2553,    2686,    2685,    5611,    5941,    5942,    5938,    5600,    5962,    5963,    5959,    5610,    5608,    5961,    5958
    1134,    2558,    2557,    2682,    2681,    2553,    2552,    2687,    2686,    5609,    5944,    5945,    5941,    5598,    5965,    5966,    5962,    5608,    5606,    5964,    5961
    1135,    2557,    2556,    2683,    2682,    2552,    2551,    2688,    2687,    5607,    5947,    5948,    5944,    5596,    5968,    5969,    5965,    5606,    5604,    5967,    5964
    1136,    2556,    2555,    2684,    2683,    2551,    2550,    2689,    2688,    5605,    5950,    5951,    5947,    5594,    5971,    5972,    5968,    5604,    5602,    5970,    5967
    1137,    2555,    1227,    1260,    2684,    2550,    1228,    1261,    2689,    5603,    5443,    5952,    5950,    5592,    5445,    5973,    5971,    5602,    5380,    5446,    5970
    1138,     366,    2680,    2605,     356,     365,    2685,    2606,     355,    5939,    5953,    5711,    3370,    5960,    5974,    5713,    3369,    3354,    5958,    5714,    3338
    1139,    2680,    2681,    2615,    2605,    2685,    2686,    2616,    2606,    5942,    5954,    5732,    5953,    5963,    5975,    5734,    5974,    5958,    5961,    5735,    5714
    1140,    2681,    2682,    2625,    2615,    2686,    2687,    2626,    2616,    5945,    5955,    5753,    5954,    5966,    5976,    5755,    5975,    5961,    5964,    5756,    5735
    1141,    2682,    2683,    2635,    2625,    2687,    2688,    2636,    2626,    5948,    5956,    5774,    5955,    5969,    5977,    5776,    5976,    5964,    5967,    5777,    5756
    1142,    2683,    2684,    2645,    2635,    2688,    2689,    2646,    2636,    5951,    5957,    5795,    5956,    5972,    5978,    5797,    5977,    5967,    5970,    5798,    5777
    1143,    2684,    1260,    1249,    2645,    2689,    1261,    1250,    2646,    5952,    5459,    5811,    5957,    5973,    5460,    5812,    5978,    5970,    5446,    5426,    5798
    1144,     303,    2554,    2685,     365,     302,    2549,    2690,     364,    5601,    5959,    5960,    3351,    5590,    5980,    5981,    3349,    3156,    5599,    5979,    3352
    1145,    2554,    2553,    2686,    2685,    2549,    2548,    2691,    2690,    5600,    5962,    5963,    5959,    5589,    5983,    5984,    5980,    5599,    5597,    5982,    5979
    1146,    2553,    2552,    2687,    2686,    2548,    2547,    2692,    2691,    5598,    5965,    5966,    5962,    5587,    5986,    5987,    5983,    5597,    5595,    5985,    5982
    1147,    2552,    2551,    2688,    2687,    2547,    2546,    2693,    2692,    5596,    5968,    5969,    5965,    5585,    5989,    5990,    5986,    5595,    5593,    5988,    5985
    1148,    2551,    2550,    2689,    2688,    2546,    2545,    2694,    2693,    5594,    5971,    5972,    5968,    5583,    5992,    5993,    5989,    5593,    5591,    5991,    5988
    1149,    2550,    1228,    1261,    2689,    2545,    1229,    1262,    2694,    5592,    5445,    5973,    5971,    5581,    5447,    5994,    5992,    5591,    5381,    5448,    5991
    1150,     365,    2685,    2606,     355,     364,    2690,    2607,     354,    5960,    5974,    5713,    3369,    5981,    5995,    5715,    3368,    3352,    5979,    5716,    3337
    1151,    2685,    2686,    2616,    2606,    2690,    2691,    2617,    2607,    5963,    5975,    5734,    5974,    5984,    5996,    5736,    5995,    5979,    5982,    5737,    5716
    1152,    2686,    2687,    2626,    2616,    2691,    2692,    2627,    2617,    5966,    5976,    5755,    5975,    5987,    5997,    5757,    5996,    5982,    5985,    5758,    5737
    1153,    2687,    2688,    2636,    2626,    2692,    2693,    2637,    2627,    5969,    5977,    5776,    5976,    5990,    5998,    5778,    5997,    5985,    5988,    5779,    5758
    1154,    2688,    2689,    2646,    2636,    2693,    2694,    2647,    2637,    5972,    5978,    5797,    5977,    5993,    5999,    5799,    5998,    5988,    5991,    5800,    5779
    1155,    2689,    1261,    1250,    2646,    2694,    1262,    1251,    2647,    5973,    5460,    5812,    5978,    5994,    5461,    5813,    5999,    5991,    5448,    5427,    5800
    1156,     302,    2549,    2690,     364,     301,    2544,    2695,     363,    5590,    5980,    5981,    3349,    5579,    6001,    6002,    3347,    3155,    5588,    6000,    3350
    1157,    2549,    2548,    2691,    2690,    2544,    2543,    2696,    2695,    5589,    5983,    5984,    5980,    5578,    6004,    6005,    6001,    5588,    5586,    6003,    6000
    1158,    2548,    2547,    2692,    2691,    2543,    2542,    2697,    2696,    5587,    5986,    5987,    5983,    5576,    6007,    6008,    6004,    5586,    5584,    6006,    6003
    1159,    2547,    2546,    2693,    2692,    2542,    2541,    2698,    2697,    5585,    5989,    5990,    5986,    5574,    6010,    6011,    6007,    5584,    5582,    6009,    6006
    1160,    2546,    2545,    2694,    2693,    2541,    2540,    2699,    2698,    5583,    5992,    5993,    5989,    5572,    6013,    6014,    6010,    5582,    5580,    6012,    6009
    1161,    2545,    1229,    1262,    2694,    2540,    1230,    1263,    2699,    5581,    5447,    5994,    5992,    5570,    5449,    6015,    6013,    5580,    5382,    5450,    6012
    1162,     364,    2690,    2607,     354,     363,    2695,    2608,     353,    5981,    5995,    5715,    3368,    6002,    6016,    5717,    3367,    3350,    6000,    5718,    3336
    1163,    2690,    2691,    2617,    2607,    2695,    2696,    2618,    2608,    5984,    5996,    5736,    5995,    6005,    6017,    5738,    6016,    6000,    6003,    5739,    5718
    1164,    2691,    2692,    2627,    2617,    2696,    2697,    2628,    2618,    5987,    5997,    5757,    5996,    6008,    6018,    5759,    6017,    6003,    6006,    5760,    5739
    1165,    2692,    2693,    2637,    2627,    2697,    2698,    2638,    2628,    5990,    5998,    5778,    5997,    6011,    6019,    5780,    6018,    6006,    6009,    5781,    5760
    1166,    2693,    2694,    2647,    2637,    2698,    2699,    2648,    2638,    5993,    5999,    5799,    5998,    6014,    6020,    5801,    6019,    6009,    6012,    5802,    5781
    1167,    2694,    1262,    1251,    2647,    2699,    1263,    1252,    2648,    5994,    5461,    5813,    5999,    6015,    5462,    5814,    6020,    6012,    5450,    5428,    5802
    1168,     301,    2544,    2695,     363,     300,    2539,    2700,     362,    5579,    6001,    6002,    3347,    5568,    6022,    6023,    3345,    3154,    5577,    6021,    3348
    1169,    2544,    2543,    2696,    2695,    2539,    2538,    2701,    2700,    5578,    6004,    6005,    6001,    5567,    6025,    6026,    6022,    5577,    5575,    6024,    6021
    1170,    2543,    2542,    2697,    2696,    2538,    2537,    2702,    2701,    5576,    6007,    6008,    6004,    5565,    6028,    6029,    6025,    5575,    5573,    6027,    6024
    1171,    2542,    2541,    2698,    2697,    2537,    2536,    2703,    2702,    5574,    6010,    6011,    6007,    5563,    6031,    6032,    6028,    5573,    5571,    6030,    6027
    1172,    2541,    2540,    2699,    2698,    2536,    2535,    2704,    2703,    5572,    6013,    6014,    6010,    5561,    6034,    6035,    6031,    5571,    5569,    6033,    6030
    1173,    2540,    1230,    1263,    2699,    2535,    1231,    1264,    2704,    5570,    5449,    6015,    6013,    5559,    5451,    6036,    6034,    5569,    5383,    5452,    6033
    1174,     363,    2695,    2608,     353,     362,    2700,    2609,     352,    6002,    6016,    5717,    3367,    6023,    6037,    5719,    3366,    3348,    6021,    5720,    3335
    1175,    2695,    2696,    2618,    2608,    2700,    2701,    2619,    2609,    6005,    6017,    5738,    6016,    6026,    6038,    5740,    6037,    6021,    6024,    5741,    5720
    1176,    2696,    2697,    2628,    2618,    2701,    2702,    2629,    2619,    6008,    6018,    5759,    6017,    6029,    6039,    5761,    6038,    6024,    6027,    5762,    5741
    1177,    2697,    2698,    2638,    2628,    2702,    2703,    2639,    2629,    6011,    6019,    5780,    6018,    6032,    6040,    5782,    6039,    6027,    6030,    5783,    5762
    1178,    2698,    2699,    2648,    2638,    2703,    2704,    2649,    2639,    6014,    6020,    5801,    6019,    6035,    6041,    5803,    6040,    6030,    6033,    5804,    5783
    1179,    2699,    1263,    1252,    2648,    2704,    1264,    1253,    2649,    6015,    5462,    5814,    6020,    6036,    5463,    5815,    6041,    6033,    5452,    5429,    5804
    1180,     300,    2539,    2700,     362,       2,    2525,    2650,       7,    5568,    6022,    6023,    3345,    5546,    5816,    5817,    3252,    3153,    5566,    6042,    3346
    1181,    2539,    2538,    2701,    2700,    2525,    2526,    2651,    2650,    5567,    6025,    6026,    6022,    5547,    5818,    5819,    5816,    5566,    5564,    6043,    6042
    1182,    2538,    2537,    2702,    2701,    2526,    2527,    2652,    2651,    5565,    6028,    6029,    6025,    5548,    5820,    5821,    5818,    5564,    5562,    6044,    6043
    1183,    2537,    2536,    2703,    2702,    2527,    2528,    2653,    2652,    5563,    6031,    6032,    6028,    5549,    5822,    5823,    5820,    5562,    5560,    6045,    6044
    1184,    2536,    2535,    2704,    2703,    2528,    2529,    2654,    2653,    5561,    6034,    6035,    6031,    5550,    5824,    5825,    5822,    5560,    5558,    6046,    6045
    1185,    2535,    1231,    1264,    2704,    2529,    1203,    1208,    2654,    5559,    5451,    6036,    6034,    5551,    5418,    5826,    5824,    5558,    5384,    5453,    6046
    1186,     362,    2700,    2609,     352,       7,    2650,    2595,       6,    6023,    6037,    5719,    3366,    5817,    5827,    5695,    3253,    3346,    6042,    5721,    3334
    1187,    2700,    2701,    2619,    2609,    2650,    2651,    2596,    2595,    6026,    6038,    5740,    6037,    5819,    5828,    5696,    5827,    6042,    6043,    5742,    5721
    1188,    2701,    2702,    2629,    2619,    2651,    2652,    2597,    2596,    6029,    6039,    5761,    6038,    5821,    5829,    5697,    5828,    6043,    6044,    5763,    5742
    1189,    2702,    2703,    2639,    2629,    2652,    2653,    2598,    2597,    6032,    6040,    5782,    6039,    5823,    5830,    5698,    5829,    6044,    6045,    5784,    5763
    1190,    2703,    2704,    2649,    2639,    2653,    2654,    2599,    2598,    6035,    6041,    5803,    6040,    5825,    5831,    5699,    5830,    6045,    6046,    5805,    5784
    1191,    2704,    1264,    1253,    2649,    2654,    1208,    1206,    2599,    6036,    5463,    5815,    6041,    5826,    5419,    5700,    5831,    6046,    5453,    5430,    5805
    1192,    2705,    2765,    2771,    2711,    2710,    2770,    2775,    2715,    6167,    6186,    6185,    6053,    6177,    6199,    6200,    6058,    6052,    6179,    6198,    6059
    1193,    2765,    2735,    2741,    2771,    2770,    2740,    2764,    2775,    6168,    6113,    6194,    6186,    6184,    6162,    6201,    6199,    6179,    6112,    6166,    6198
    1194,    2711,    2771,    2772,    2712,    2715,    2775,    2776,    2720,    6185,    6188,    6187,    6054,    6200,    6203,    6204,    6069,    6059,    6198,    6202,    6070
    1195,    2771,    2741,    2742,    2772,    2775,    2764,    2763,    2776,    6194,    6114,    6195,    6188,    6201,    6161,    6205,    6203,    6198,    6166,    6165,    6202
    1196,    2712,    2772,    2773,    2713,    2720,    2776,    2777,    2725,    6187,    6190,    6189,    6055,    6204,    6207,    6208,    6080,    6070,    6202,    6206,    6081
    1197,    2772,    2742,    2743,    2773,    2776,    2763,    2762,    2777,    6195,    6115,    6196,    6190,    6205,    6159,    6209,    6207,    6202,    6165,    6164,    6206
    1198,    2713,    2773,    2774,    2714,    2725,    2777,    2778,    2730,    6189,    6192,    6191,    6056,    6208,    6211,    6212,    6091,    6081,    6206,    6210,    6092
    1199,    2773,    2743,    2744,    2774,    2777,    2762,    2761,    2778,    6196,    6116,    6197,    6192,    6209,    6157,    6213,    6211,    6206,    6164,    6163,    6210
    1200,    2714,    2774,    1208,    1203,    2730,    2778,    2654,    2529,    6191,    6193,    5418,    6057,    6212,    6214,    5824,    6102,    6092,    6210,    5826,    5551
    1201,    2774,    2744,    1206,    1208,    2778,    2761,    2599,    2654,    6197,    6117,    5419,    6193,    6213,    6155,    5831,    6214,    6210,    6163,    5700,    5826
    1202,    2710,    2770,    2775,    2715,    2709,    2769,    2779,    2716,    6177,    6199,    6200,    6058,    6175,    6216,    6217,    6060,    6051,    6178,    6215,    6061
    1203,    2770,    2740,    2764,    2775,    2769,    2739,    2760,    2779,    6184,    6162,    6201,    6199,    6183,    6153,    6218,    6216,    6178,    6111,    6160,    6215
    1204,    2715,    2775,    2776,    2720,    2716,    2779,    2780,    2721,    6200,    6203,    6204,    6069,    6217,    6220,    6221,    6071,    6061,    6215,    6219,    6072
    1205,    2775,    2764,    2763,    2776,    2779,    2760,    2759,    2780,    6201,    6161,    6205,    6203,    6218,    6152,    6222,    6220,    6215,    6160,    6158,    6219
    1206,    2720,    2776,    2777,    2725,    2721,    2780,    2781,    2726,    6204,    6207,    6208,    6080,    6221,    6224,    6225,    6082,    6072,    6219,    6223,    6083
    1207,    2776,    2763,    2762,    2777,    2780,    2759,    2758,    2781,    6205,    6159,    6209,    6207,    6222,    6150,    6226,    6224,    6219,    6158,    6156,    6223
    1208,    2725,    2777,    2778,    2730,    2726,    2781,    2782,    2731,    6208,    6211,    6212,    6091,    6225,    6228,    6229,    6093,    6083,    6223,    6227,    6094
    1209,    2777,    2762,    2761,    2778,    2781,    2758,    2757,    2782,    6209,    6157,    6213,    6211,    6226,    6148,    6230,    6228,    6223,    6156,    6154,    6227
    1210,    2730,    2778,    2654,    2529,    2731,    2782,    2653,    2528,    6212,    6214,    5824,    6102,    6229,    6231,    5822,    6103,    6094,    6227,    5825,    5550
    1211,    2778,    2761,    2599,    2654,    2782,    2757,    2598,    2653,    6213,    6155,    5831,    6214,    6230,    6146,    5830,    6231,    6227,    6154,    5699,    5825
    1212,    2709,    2769,    2779,    2716,    2708,    2768,    2783,    2717,    6175,    6216,    6217,    6060,    6173,    6233,    6234,    6062,    6050,    6176,    6232,    6063
    1213,    2769,    2739,    2760,    2779,    2768,    2738,    2756,    2783,    6183,    6153,    6218,    6216,    6182,    6144,    6235,    6233,    6176,    6110,    6151,    6232
    1214,    2716,    2779,    2780,    2721,    2717,    2783,    2784,    2722,    6217,    6220,    6221,    6071,    6234,    6237,    6238,    6073,    6063,    6232,    6236,    6074
    1215,    2779,    2760,    2759,    2780,    2783,    2756,    2755,    2784,    6218,    6152,    6222,    6220,    6235,    6143,    6239,    6237,    6232,    6151,    6149,    6236
    1216,    2721,    2780,    2781,    2726,    2722,    2784,    2785,    2727,    6221,    6224,    6225,    6082,    6238,    6241,    6242,    6084,    6074,    6236,    6240,    6085
    1217,    2780,    2759,    2758,    2781,    2784,    2755,    2754,    2785,    6222,    6150,    6226,    6224,    6239,    6141,    6243,    6241,    6236,    6149,    6147,    6240
    1218,    2726,    2781,    2782,    2731,    2727,    2785,    2786,    2732,    6225,    6228,    6229,    6093,    6242,    6245,    6246,    6095,    6085,    6240,    6244,    6096
    1219,    2781,    2758,    2757,    2782,    2785,    2754,    2753,    2786,    6226,    6148,    6230,    6228,    6243,    6139,    6247,    6245,    6240,    6147,    6145,    6244
    1220,    2731,    2782,    2653,    2528,    2732,    2786,    2652,    2527,    6229,    6231,    5822,    6103,    6246,    6248,    5820,    6104,    6096,    6244,    5823,    5549
    1221,    2782,    2757,    2598,    2653,    2786,    2753,    2597,    2652,    6230,    6146,    5830,    6231,    6247,    6137,    5829,    6248,    6244,    6145,    5698,    5823
    1222,    2708,    2768,    2783,    2717,    2707,    2767,    2787,    2718,    6173,    6233,    6234,    6062,    6171,    6250,    6251,    6064,    6049,    6174,    6249,    6065
    1223,    2768,    2738,    2756,    2783,    2767,    2737,    2752,    2787,    6182,    6144,    6235,    6233,    6181,    6135,    6252,    6250,    6174,    6109,    6142,    6249
    1224,    2717,    2783,    2784,    2722,    2718,    2787,    2788,    2723,    6234,    6237,    6238,    6073,    6251,    6254,    6255,    6075,    6065,    6249,    6253,    6076
    1225,    2783,    2756,    2755,    2784,    2787,    2752,    2751,    2788,    6235,    6143,    6239,    6237,    6252,    6134,    6256,    6254,    6249,    6142,    6140,    6253
    1226,    2722,    2784,    2785,    2727,    2723,    2788,    2789,    2728,    6238,    6241,    6242,    6084,    6255,    6258,    6259,    6086,    6076,    6253,    6257,    6087
    1227,    2784,    2755,    2754,    2785,    2788,    2751,    2750,    2789,    6239,    6141,    6243,    6241,    6256,    6132,    6260,    6258,    6253,    6140,    6138,    6257
    1228,    2727,    2785,    2786,    2732,    2728,    2789,    2790,    2733,    6242,    6245,    6246,    6095,    6259,    6262,    6263,    6097,    6087,    6257,    6261,    6098
    1229,    2785,    2754,    2753,    2786,    2789,    2750,    2749,    2790,    6243,    6139,    6247,    6245,    6260,    6130,    6264,    6262,    6257,    6138,    6136,    6261
    1230,    2732,    2786,    2652,    2527,    2733,    2790,    2651,    2526,    6246,    6248,    5820,    6104,    6263,    6265,    5818,    6105,    6098,    6261,    5821,    5548
    1231,    2786,    2753,    2597,    2652,    2790,    2749,    2596,    2651,    6247,    6137,    5829,    6248,    6264,    6128,    5828,    6265,    6261,    6136,    5697,    5821
    1232,    2707,    2767,    2787,    2718,    2706,    2766,    2791,    2719,    6171,    6250,    6251,    6064,    6169,    6267,    6268,    6066,    6048,    6172,    6266,    6067
    1233,    2767,    2737,    2752,    2787,    2766,    2736,    2748,    2791,    6181,    6135,    6252,    6250,    6180,    6126,    6269,    6267,    6172,    6108,    6133,    6266
    1234,    2718,    2787,    2788,    2723,    2719,    2791,    2792,    2724,    6251,    6254,    6255,    6075,    6268,    6271,    6272,    6077,    6067,    6266,    6270,    6078
    1235,    2787,    2752,    2751,    2788,    2791,    2748,    2747,    2792,    6252,    6134,    6256,    6254,    6269,    6125,    6273,    6271,    6266,    6133,    6131,    6270
    1236,    2723,    2788,    2789,    2728,    2724,    2792,    2793,    2729,    6255,    6258,    6259,    6086,    6272,    6275,    6276,    6088,    6078,    6270,    6274,    6089
    1237,    2788,    2751,    2750,    2789,    2792,    2747,    2746,    2793,    6256,    6132,    6260,    6258,    6273,    6123,    6277,    6275,    6270,    6131,    6129,    6274
    1238,    2728,    2789,    2790,    2733,    2729,    2793,    2794,    2734,    6259,    6262,    6263,    6097,    6276,    6279,    6280,    6099,    6089,    6274,    6278,    6100
    1239,    2789,    2750,    2749,    2790,    2793,    2746,    2745,    2794,    6260,    6130,    6264,    6262,    6277,    6121,    6281,    6279,    6274,    6129,    6127,    6278
    1240,    2733,    2790,    2651,    2526,    2734,    2794,    2650,    2525,    6263,    6265,    5818,    6105,    6280,    6282,    5816,    6106,    6100,    6278,    5819,    5547
    1241,    2790,    2749,    2596,    2651,    2794,    2745,    2595,    2650,    6264,    6128,    5828,    6265,    6281,    6119,    5827,    6282,    6278,    6127,    5696,    5819
    1242,    2706,    2766,    2791,    2719,      50,      80,      81,      51,    6169,    6267,    6268,    6066,    4741,    4827,    4826,    4696,    6047,    6170,    6283,    6068
    1243,    2766,    2736,    2748,    2791,      80,      75,      76,      81,    6180,    6126,    6269,    6267,    4742,    4821,    4835,    4827,    6170,    6107,    6124,    6283
    1244,    2719,    2791,    2792,    2724,      51,      81,      82,      52,    6268,    6271,    6272,    6077,    4826,    4829,    4828,    4697,    6068,    6283,    6284,    6079
    1245,    2791,    2748,    2747,    2792,      81,      76,      77,      82,    6269,    6125,    6273,    6271,    4835,    4822,    4836,    4829,    6283,    6124,    6122,    6284
    1246,    2724,    2792,    2793,    2729,      52,      82,      83,      53,    6272,    6275,    6276,    6088,    4828,    4831,    4830,    4698,    6079,    6284,    6285,    6090
    1247,    2792,    2747,    2746,    2793,      82,      77,      78,      83,    6273,    6123,    6277,    6275,    4836,    4823,    4837,    4831,    6284,    6122,    6120,    6285
    1248,    2729,    2793,    2794,    2734,      53,      83,      84,      54,    6276,    6279,    6280,    6099,    4830,    4833,    4832,    4699,    6090,    6285,    6286,    6101
    1249,    2793,    2746,    2745,    2794,      83,      78,      79,      84,    6277,    6121,    6281,    6279,    4837,    4824,    4838,    4833,    6285,    6120,    6118,    6286
    1250,    2734,    2794,    2650,    2525,      54,      84,       7,       2,    6280,    6282,    5816,    6106,    4832,    4834,    3252,    4700,    6101,    6286,    5817,    5546
    1251,    2794,    2745,    2595,    2650,      84,      79,       6,       7,    6281,    6119,    5827,    6282,    4838,    4825,    3253,    4834,    6286,    6118,    5695,    5817
    1252,    1798,    1772,    1789,    1796,    1332,    1306,    1321,    1331,    6864,    6865,    6866,    6867,    6863,    6837,    6859,    6861,    6868,    6869,    6870,    6871
    1253,    1777,    1705,    1772,    1798,    1310,    1305,    1306,    1332,    6872,    6873,    6864,    6874,    6811,    6801,    6863,    6862,    6875,    6646,    6869,    6868
    1254,    1776,    1777,    1798,    1787,    1330,    1310,    1332,    1320,    6876,    6874,    6877,    6878,    6858,    6862,    6860,    6833,    6879,    6875,    6868,    6880
    1255,    1787,    1798,    1796,    1792,    1320,    1332,    1331,    1325,    6877,    6867,    6881,    6882,    6860,    6861,    6853,    6845,    6880,    6868,    6871,    6883
    1256,    1789,    1797,    1794,    1796,    1321,    1328,    1329,    1331,    6884,    6885,    6886,    6866,    6856,    6857,    6854,    6859,    6870,    6887,    6888,    6871
    1257,    1777,    1776,    1675,    1685,    1310,    1330,    1303,    1302,    6876,    6889,    6593,    6890,    6858,    6809,    6548,    6812,    6875,    6879,    6573,    6594
    1258,    1795,    1793,    1794,    1797,    1327,    1326,    1329,    1328,    6891,    6892,    6885,    6893,    6852,    6849,    6857,    6855,    6894,    6895,    6888,    6887
    1259,    1788,    1795,    1797,    1789,    1322,    1327,    1328,    1321,    6896,    6893,    6884,    6897,    6851,    6855,    6856,    6836,    6898,    6894,    6887,    6870
    1260,    1794,    1791,    1792,    1796,    1329,    1324,    1325,    1331,    6899,    6900,    6881,    6886,    6848,    6844,    6853,    6854,    6888,    6901,    6883,    6871
    1261,    1795,    1779,    1780,    1793,    1327,    1312,    1313,    1326,    6902,    6903,    6904,    6891,    6850,    6818,    6847,    6852,    6894,    6905,    6906,    6895
    1262,    1788,    1778,    1779,    1795,    1322,    1311,    1312,    1327,    6907,    6908,    6902,    6896,    6838,    6816,    6850,    6851,    6898,    6909,    6905,    6894
    1263,    1791,    1794,    1793,    1790,    1324,    1329,    1326,    1323,    6899,    6892,    6910,    6911,    6848,    6849,    6846,    6842,    6901,    6888,    6895,    6912
    1264,    1781,    1790,    1793,    1780,    1314,    1323,    1326,    1313,    6913,    6910,    6904,    6914,    6840,    6846,    6847,    6820,    6915,    6912,    6895,    6906
    1265,    1792,    1785,    1786,    1787,    1325,    1318,    1319,    1320,    6916,    6917,    6918,    6882,    6843,    6831,    6834,    6845,    6883,    6919,    6920,    6880
    1266,    1784,    1785,    1792,    1791,    1317,    1318,    1325,    1324,    6921,    6916,    6900,    6922,    6829,    6843,    6844,    6841,    6923,    6919,    6883,    6901
    1267,    1783,    1784,    1791,    1790,    1316,    1317,    1324,    1323,    6924,    6922,    6911,    6925,    6827,    6841,    6842,    6839,    6926,    6923,    6901,    6912
    1268,    1782,    1783,    1790,    1781,    1315,    1316,    1323,    1314,    6927,    6925,    6913,    6928,    6825,    6839,    6840,    6822,    6929,    6926,    6912,    6915
    1269,    1773,    1774,    1778,    1788,    1307,    1308,    1311,    1322,    6930,    6931,    6907,    6932,    6805,    6814,    6838,    6835,    6933,    6934,    6909,    6898
    1270,    1772,    1773,    1788,    1789,    1306,    1307,    1322,    1321,    6935,    6932,    6897,    6865,    6803,    6835,    6836,    6837,    6869,    6933,    6898,    6870
    1271,    1775,    1776,    1787,    1786,    1309,    1330,    1320,    1319,    6936,    6878,    6918,    6937,    6810,    6833,    6834,    6832,    6938,    6879,    6880,    6920
    1272,    1731,    1721,    1775,    1786,    1296,    1295,    1309,    1319,    6703,    6939,    6937,    6940,    6658,    6808,    6832,    6830,    6705,    6684,    6938,    6920
    1273,    1741,    1731,    1786,    1785,    1297,    1296,    1319,    1318,    6724,    6940,    6917,    6941,    6659,    6830,    6831,    6828,    6726,    6705,    6920,    6919
    1274,    1751,    1741,    1785,    1784,    1298,    1297,    1318,    1317,    6745,    6941,    6921,    6942,    6660,    6828,    6829,    6826,    6747,    6726,    6919,    6923
    1275,    1761,    1751,    1784,    1783,    1299,    1298,    1317,    1316,    6766,    6942,    6924,    6943,    6661,    6826,    6827,    6824,    6768,    6747,    6923,    6926
    1276,    1771,    1761,    1783,    1782,    1300,    1299,    1316,    1315,    6787,    6943,    6927,    6944,    6662,    6824,    6825,    6823,    6789,    6768,    6926,    6929
    1277,    1630,    1579,    1771,    1782,    1288,    1287,    1300,    1315,    6438,    6799,    6944,    6945,    6305,    6663,    6823,    6821,    6418,    6304,    6789,    6929
    1278,    1620,    1630,    1782,    1781,    1289,    1288,    1315,    1314,    6417,    6945,    6928,    6946,    6306,    6821,    6822,    6819,    6397,    6418,    6929,    6915
    1279,    1610,    1620,    1781,    1780,    1290,    1289,    1314,    1313,    6396,    6946,    6914,    6947,    6307,    6819,    6820,    6817,    6376,    6397,    6915,    6906
    1280,    1600,    1610,    1780,    1779,    1291,    1290,    1313,    1312,    6375,    6947,    6903,    6948,    6308,    6817,    6818,    6815,    6355,    6376,    6906,    6905
    1281,    1590,    1600,    1779,    1778,    1292,    1291,    1312,    1311,    6354,    6948,    6908,    6949,    6309,    6815,    6816,    6813,    6334,    6355,    6905,    6909
    1282,    1580,    1590,    1778,    1774,    1293,    1292,    1311,    1308,    6333,    6949,    6931,    6950,    6310,    6813,    6814,    6806,    6313,    6334,    6909,    6934
    1283,    1685,    1664,    1705,    1777,    1302,    1301,    1305,    1310,    6614,    6656,    6872,    6890,    6547,    6624,    6811,    6812,    6594,    6546,    6646,    6875
    1284,    1665,    1675,    1776,    1775,    1304,    1303,    1330,    1309,    6572,    6889,    6936,    6951,    6549,    6809,    6810,    6807,    6552,    6573,    6879,    6938
    1285,    1641,    1665,    1775,    1721,    1294,    1304,    1309,    1295,    6551,    6951,    6939,    6682,    6550,    6807,    6808,    6657,    6525,    6552,    6938,    6684
    1286,     347,     319,    1580,    1774,       3,       1,    1293,    1308,    3243,    6312,    6950,    6952,    3164,    6311,    6806,    6804,    3249,    3178,    6313,    6934
    1287,     348,     347,    1774,    1773,       4,       3,    1308,    1307,    3245,    6952,    6930,    6953,    3165,    6804,    6805,    6802,    3250,    3249,    6934,    6933
    1288,     349,     348,    1773,    1772,       5,       4,    1307,    1306,    3247,    6953,    6935,    6954,    3166,    6802,    6803,    6800,    3251,    3250,    6933,    6869
    1289,     300,     349,    1772,    1705,       2,       5,    1306,    1305,    3248,    6954,    6873,    6644,    3167,    6800,    6801,    6625,    3153,    3251,    6869,    6646
    1290,    1825,    1799,    1816,    1823,    1798,    1772,    1789,    1796,    6955,    6956,    6957,    6958,    6864,    6865,    6866,    6867,    6959,    6960,    6961,    6962
    1291,    1804,    1704,    1799,    1825,    1777,    1705,    1772,    1798,    6963,    6964,    6955,    6965,    6872,    6873,    6864,    6874,    6966,    6645,    6960,    6959
    1292,    1803,    1804,    1825,    1814,    1776,    1777,    1798,    1787,    6967,    6965,    6968,    6969,    6876,    6874,    6877,    6878,    6970,    6966,    6959,    6971
    1293,    1814,    1825,    1823,    1819,    1787,    1798,    1796,    1792,    6968,    6958,    6972,    6973,    6877,    6867,    6881,    6882,    6971,    6959,    6962,    6974
    1294,    1816,    1824,    1821,    1823,    1789,    1797,    1794,    1796,    6975,    6976,    6977,    6957,    6884,    6885,    6886,    6866,    6961,    6978,    6979,    6962
    1295,    1804,    1803,    1676,    1686,    1777,    1776,    1675,    1685,    6967,    6980,    6595,    6981,    6876,    6889,    6593,    6890,    6966,    6970,    6575,    6596
    1296,    1822,    1820,    1821,    1824,    1795,    1793,    1794,    1797,    6982,    6983,    6976,    6984,    6891,    6892,    6885,    6893,    6985,    6986,    6979,    6978
    1297,    1815,    1822,    1824,    1816,    1788,    1795,    1797,    1789,    6987,    6984,    6975,    6988,    6896,    6893,    6884,    6897,    6989,    6985,    6978,    6961
    1298,    1821,    1818,    1819,    1823,    1794,    1791,    1792,    1796,    6990,    6991,    6972,    6977,    6899,    6900,    6881,    6886,    6979,    6992,    6974,    6962
    1299,    1822,    1806,    1807,    1820,    1795,    1779,    1780,    1793,    6993,    6994,    6995,    6982,    6902,    6903,    6904,    6891,    6985,    6996,    6997,    6986
    1300,    1815,    1805,    1806,    1822,    1788,    1778,    1779,    1795,    6998,    6999,    6993,    6987,    6907,    6908,    6902,    6896,    6989,    7000,    6996,    6985
    1301,    1818,    1821,    1820,    1817,    1791,    1794,    1793,    1790,    6990,    6983,    7001,    7002,    6899,    6892,    6910,    6911,    6992,    6979,    6986,    7003
    1302,    1808,    1817,    1820,    1807,    1781,    1790,    1793,    1780,    7004,    7001,    6995,    7005,    6913,    6910,    6904,    6914,    7006,    7003,    6986,    6997
    1303,    1819,    1812,    1813,    1814,    1792,    1785,    1786,    1787,    7007,    7008,    7009,    6973,    6916,    6917,    6918,    6882,    6974,    7010,    7011,    6971
    1304,    1811,    1812,    1819,    1818,    1784,    1785,    1792,    1791,    7012,    7007,    6991,    7013,    6921,    6916,    6900,    6922,    7014,    7010,    6974,    6992
    1305,    1810,    1811,    1818,    1817,    1783,    1784,    1791,    1790,    7015,    7013,    7002,    7016,    6924,    6922,    6911,    6925,    7017,    7014,    6992,    7003
    1306,    1809,    1810,    1817,    1808,    1782,    1783,    1790,    1781,    7018,    7016,    7004,    7019,    6927,    6925,    6913,    6928,    7020,    7017,    7003,    7006
    1307,    1800,    1801,    1805,    1815,    1773,    1774,    1778,    1788,    7021,    7022,    6998,    7023,    6930,    6931,    6907,    6932,    7024,    7025,    7000,    6989
    1308,    1799,    1800,    1815,    1816,    1772,    1773,    1788,    1789,    7026,    7023,    6988,    6956,    6935,    6932,    6897,    6865,    6960,    7024,    6989,    6961
    1309,    1802,    1803,    1814,    1813,    1775,    1776,    1787,    1786,    7027,    6969,    7009,    7028,    6936,    6878,    6918,    6937,    7029,    6970,    6971,    7011
    1310,    1730,    1720,    1802,    1813,    1731,    1721,    1775,    1786,    6701,    7030,    7028,    7031,    6703,    6939,    6937,    6940,    6704,    6683,    7029,    7011
    1311,    1740,    1730,    1813,    1812,    1741,    1731,    1786,    1785,    6722,    7031,    7008,    7032,    6724,    6940,    6917,    6941,    6725,    6704,    7011,    7010
    1312,    1750,    1740,    1812,    1811,    1751,    1741,    1785,    1784,    6743,    7032,    7012,    7033,    6745,    6941,    6921,    6942,    6746,    6725,    7010,    7014
    1313,    1760,    1750,    1811,    1810,    1761,    1751,    1784,    1783,    6764,    7033,    7015,    7034,    6766,    6942,    6924,    6943,    6767,    6746,    7014,    7017
    1314,    1770,    1760,    1810,    1809,    1771,    1761,    1783,    1782,    6785,    7034,    7018,    7035,    6787,    6943,    6927,    6944,    6788,    6767,    7017,    7020
    1315,    1631,    1578,    1770,    1809,    1630,    1579,    1771,    1782,    6439,    6798,    7035,    7036,    6438,    6799,    6944,    6945,    6420,    6303,    6788,    7020
    1316,    1621,    1631,    1809,    1808,    1620,    1630,    1782,    1781,    6419,    7036,    7019,    7037,    6417,    6945,    6928,    6946,    6399,    6420,    7020,    7006
    1317,    1611,    1621,    1808,    1807,    1610,    1620,    1781,    1780,    6398,    7037,    7005,    7038,    6396,    6946,    6914,    6947,    6378,    6399,    7006,    6997
    1318,    1601,    1611,    1807,    1806,    1600,    1610,    1780,    1779,    6377,    7038,    6994,    7039,    6375,    6947,    6903,    6948,    6357,    6378,    6997,    6996
    1319,    1591,    1601,    1806,    1805,    1590,    1600,    1779,    1778,    6356,    7039,    6999,    7040,    6354,    6948,    6908,    6949,    6336,    6357,    6996,    7000
    1320,    1581,    1591,    1805,    1801,    1580,    1590,    1778,    1774,    6335,    7040,    7022,    7041,    6333,    6949,    6931,    6950,    6315,    6336,    7000,    7025
    1321,    1686,    1663,    1704,    1804,    1685,    1664,    1705,    1777,    6615,    6655,    6963,    6981,    6614,    6656,    6872,    6890,    6596,    6545,    6645,    6966
    1322,    1666,    1676,    1803,    1802,    1665,    1675,    1776,    1775,    6574,    6980,    7027,    7042,    6572,    6889,    6936,    6951,    6554,    6575,    6970,    7029
    1323,    1642,    1666,    1802,    1720,    1641,    1665,    1775,    1721,    6553,    7042,    7030,    6680,    6551,    6951,    6939,    6682,    6526,    6554,    7029,    6683
    1324,     344,     318,    1581,    1801,     347,     319,    1580,    1774,    3236,    6314,    7041,    7043,    3243,    6312,    6950,    6952,    3242,    3177,    6315,    7025
    1325,     345,     344,    1801,    1800,     348,     347,    1774,    1773,    3238,    7043,    7021,    7044,    3245,    6952,    6930,    6953,    3244,    3242,    7025,    7024
    1326,     346,     345,    1800,    1799,     349,     348,    1773,    1772,    3240,    7044,    7026,    7045,    3247,    6953,    6935,    6954,    3246,    3244,    7024,    6960
    1327,     301,     346,    1799,    1704,     300,     349,    1772,    1705,    3241,    7045,    6964,    6642,    3248,    6954,    6873,    6644,    3154,    3246,    6960,    6645
    1328,    1852,    1826,    1843,    1850,    1825,    1799,    1816,    1823,    7046,    7047,    7048,    7049,    6955,    6956,    6957,    6958,    7050,    7051,    7052,    7053
    1329,    1831,    1703,    1826,    1852,    1804,    1704,    1799,    1825,    7054,    7055,    7046,    7056,    6963,    6964,    6955,    6965,    7057,    6643,    7051,    7050
    1330,    1830,    1831,    1852,    1841,    1803,    1804,    1825,    1814,    7058,    7056,    7059,    7060,    6967,    6965,    6968,    6969,    7061,    7057,    7050,    7062
    1331,    1841,    1852,    1850,    1846,    1814,    1825,    1823,    1819,    7059,    7049,    7063,    7064,    6968,    6958,    6972,    6973,    7062,    7050,    7053,    7065
    1332,    1843,    1851,    1848,    1850,    1816,    1824,    1821,    1823,    7066,    7067,    7068,    7048,    6975,    6976,    6977,    6957,    7052,    7069,    7070,    7053
    1333,    1831,    1830,    1677,    1687,    1804,    1803,    1676,    1686,    7058,    7071,    6597,    7072,    6967,    6980,    6595,    6981,    7057,    7061,    6577,    6598
    1334,    1849,    1847,    1848,    1851,    1822,    1820,    1821,    1824,    7073,    7074,    7067,    7075,    6982,    6983,    6976,    6984,    7076,    7077,    7070,    7069
    1335,    1842,    1849,    1851,    1843,    1815,    1822,    1824,    1816,    7078,    7075,    7066,    7079,    6987,    6984,    6975,    6988,    7080,    7076,    7069,    7052
    1336,    1848,    1845,    1846,    1850,    1821,    1818,    1819,    1823,    7081,    7082,    7063,    7068,    6990,    6991,    6972,    6977,    7070,    7083,    7065,    7053
    1337,    1849,    1833,    1834,    1847,    1822,    1806,    1807,    1820,    7084,    7085,    7086,    7073,    6993,    6994,    6995,    6982,    7076,    7087,    7088,    7077
    1338,    1842,    1832,    1833,    1849,    1815,    1805,    1806,    1822,    7089,    7090,    7084,    7078,    6998,    6999,    6993,    6987,    7080,    7091,    7087,    7076
    1339,    1845,    1848,    1847,    1844,    1818,    1821,    1820,    1817,    7081,    7074,    7092,    7093,    6990,    6983,    7001,    7002,    7083,    7070,    7077,    7094
    1340,    1835,    1844,    1847,    1834,    1808,    1817,    1820,    1807,    7095,    7092,    7086,    7096,    7004,    7001,    6995,    7005,    7097,    7094,    7077,    7088
    1341,    1846,    1839,    1840,    1841,    1819,    1812,    1813,    1814,    7098,    7099,    7100,    7064,    7007,    7008,    7009,    6973,    7065,    7101,    7102,    7062
    1342,    1838,    1839,    1846,    1845,    1811,    1812,    1819,    1818,    7103,    7098,    7082,    7104,    7012,    7007,    6991,    7013,    7105,    7101,    7065,    7083
    1343,    1837,    1838,    1845,    1844,    1810,    1811,    1818,    1817,    7106,    7104,    7093,    7107,    7015,    7013,    7002,    7016,    7108,    7105,    7083,    7094
    1344,    1836,    1837,    1844,    1835,    1809,    1810,    1817,    1808,    7109,    7107,    7095,    7110,    7018,    7016,    7004,    7019,    7111,    7108,    7094,    7097
    1345,    1827,    1828,    1832,    1842,    1800,    1801,    1805,    1815,    7112,    7113,    7089,    7114,    7021,    7022,    6998,    7023,    7115,    7116,    7091,    7080
    1346,    1826,    1827,    1842,    1843,    1799,    1800,    1815,    1816,    7117,    7114,    7079,    7047,    7026,    7023,    6988,    6956,    7051,    7115,    7080,    7052
    1347,    1829,    1830,    1841,    1840,    1802,    1803,    1814,    1813,    7118,    7060,    7100,    7119,    7027,    6969,    7009,    7028,    7120,    7061,    7062,    7102
    1348,    1729,    1719,    1829,    1840,    1730,    1720,    1802,    1813,    6699,    7121,    7119,    7122,    6701,    7030,    7028,    7031,    6702,    6681,    7120,    7102
    1349,    1739,    1729,    1840,    1839,    1740,    1730,    1813,    1812,    6720,    7122,    7099,    7123,    6722,    7031,    7008,    7032,    6723,    6702,    7102,    7101
    1350,    1749,    1739,    1839,    1838,    1750,    1740,    1812,    1811,    6741,    7123,    7103,    7124,    6743,    7032,    7012,    7033,    6744,    6723,    7101,    7105
    1351,    1759,    1749,    1838,    1837,    1760,    1750,    1811,    1810,    6762,    7124,    7106,    7125,    6764,    7033,    7015,    7034,    6765,    6744,    7105,    7108
    1352,    1769,    1759,    1837,    1836,    1770,    1760,    1810,    1809,    6783,    7125,    7109,    7126,    6785,    7034,    7018,    7035,    6786,    6765,    7108,    7111
    1353,    1632,    1577,    1769,    1836,    1631,    1578,    1770,    1809,    6440,    6797,    7126,    7127,    6439,    6798,    7035,    7036,    6422,    6302,    6786,    7111
    1354,    1622,    1632,    1836,    1835,    1621,    1631,    1809,    1808,    6421,    7127,    7110,    7128,    6419,    7036,    7019,    7037,    6401,    6422,    7111,    7097
    1355,    1612,    1622,    1835,    1834,    1611,    1621,    1808,    1807,    6400,    7128,    7096,    7129,    6398,    7037,    7005,    7038,    6380,    6401,    7097,    7088
    1356,    1602,    1612,    1834,    1833,    1601,    1611,    1807,    1806,    6379,    7129,    7085,    7130,    6377,    7038,    6994,    7039,    6359,    6380,    7088,    7087
    1357,    1592,    1602,    1833,    1832,    1591,    1601,    1806,    1805,    6358,    7130,    7090,    7131,    6356,    7039,    6999,    7040,    6338,    6359,    7087,    7091
    1358,    1582,    1592,    1832,    1828,    1581,    1591,    1805,    1801,    6337,    7131,    7113,    7132,    6335,    7040,    7022,    7041,    6317,    6338,    7091,    7116
    1359,    1687,    1662,    1703,    1831,    1686,    1663,    1704,    1804,    6616,    6654,    7054,    7072,    6615,    6655,    6963,    6981,    6598,    6544,    6643,    7057
    1360,    1667,    1677,    1830,    1829,    1666,    1676,    1803,    1802,    6576,    7071,    7118,    7133,    6574,    6980,    7027,    7042,    6556,    6577,    7061,    7120
    1361,    1643,    1667,    1829,    1719,    1642,    1666,    1802,    1720,    6555,    7133,    7121,    6678,    6553,    7042,    7030,    6680,    6527,    6556,    7120,    6681
    1362,     341,     317,    1582,    1828,     344,     318,    1581,    1801,    3229,    6316,    7132,    7134,    3236,    6314,    7041,    7043,    3235,    3176,    6317,    7116
    1363,     342,     341,    1828,    1827,     345,     344,    1801,    1800,    3231,    7134,    7112,    7135,    3238,    7043,    7021,    7044,    3237,    3235,    7116,    7115
    1364,     343,     342,    1827,    1826,     346,     345,    1800,    1799,    3233,    7135,    7117,    7136,    3240,    7044,    7026,    7045,    3239,    3237,    7115,    7051
    1365,     302,     343,    1826,    1703,     301,     346,    1799,    1704,    3234,    7136,    7055,    6640,    3241,    7045,    6964,    6642,    3155,    3239,    7051,    6643
    1366,    1879,    1853,    1870,    1877,    1852,    1826,    1843,    1850,    7137,    7138,    7139,    7140,    7046,    7047,    7048,    7049,    7141,    7142,    7143,    7144
    1367,    1858,    1702,    1853,    1879,    1831,    1703,    1826,    1852,    7145,    7146,    7137,    7147,    7054,    7055,    7046,    7056,    7148,    6641,    7142,    7141
    1368,    1857,    1858,    1879,    1868,    1830,    1831,    1852,    1841,    7149,    7147,    7150,    7151,    7058,    7056,    7059,    7060,    7152,    7148,    7141,    7153
    1369,    1868,    1879,    1877,    1873,    1841,    1852,    1850,    1846,    7150,    7140,    7154,    7155,    7059,    7049,    7063,    7064,    7153,    7141,    7144,    7156
    1370,    1870,    1878,    1875,    1877,    1843,    1851,    1848,    1850,    7157,    7158,    7159,    7139,    7066,    7067,    7068,    7048,    7143,    7160,    7161,    7144
    1371,    1858,    1857,    1678,    1688,    1831,    1830,    1677,    1687,    7149,    7162,    6599,    7163,    7058,    7071,    6597,    7072,    7148,    7152,    6579,    6600
    1372,    1876,    1874,    1875,    1878,    1849,    1847,    1848,    1851,    7164,    7165,    7158,    7166,    7073,    7074,    7067,    7075,    7167,    7168,    7161,    7160
    1373,    1869,    1876,    1878,    1870,    1842,    1849,    1851,    1843,    7169,    7166,    7157,    7170,    7078,    7075,    7066,    7079,    7171,    7167,    7160,    7143
    1374,    1875,    1872,    1873,    1877,    1848,    1845,    1846,    1850,    7172,    7173,    7154,    7159,    7081,    7082,    7063,    7068,    7161,    7174,    7156,    7144
    1375,    1876,    1860,    1861,    1874,    1849,    1833,    1834,    1847,    7175,    7176,    7177,    7164,    7084,    7085,    7086,    7073,    7167,    7178,    7179,    7168
    1376,    1869,    1859,    1860,    1876,    1842,    1832,    1833,    1849,    7180,    7181,    7175,    7169,    7089,    7090,    7084,    7078,    7171,    7182,    7178,    7167
    1377,    1872,    1875,    1874,    1871,    1845,    1848,    1847,    1844,    7172,    7165,    7183,    7184,    7081,    7074,    7092,    7093,    7174,    7161,    7168,    7185
    1378,    1862,    1871,    1874,    1861,    1835,    1844,    1847,    1834,    7186,    7183,    7177,    7187,    7095,    7092,    7086,    7096,    7188,    7185,    7168,    7179
    1379,    1873,    1866,    1867,    1868,    1846,    1839,    1840,    1841,    7189,    7190,    7191,    7155,    7098,    7099,    7100,    7064,    7156,    7192,    7193,    7153
    1380,    1865,    1866,    1873,    1872,    1838,    1839,    1846,    1845,    7194,    7189,    7173,    7195,    7103,    7098,    7082,    7104,    7196,    7192,    7156,    7174
    1381,    1864,    1865,    1872,    1871,    1837,    1838,    1845,    1844,    7197,    7195,    7184,    7198,    7106,    7104,    7093,    7107,    7199,    7196,    7174,    7185
    1382,    1863,    1864,    1871,    1862,    1836,    1837,    1844,    1835,    7200,    7198,    7186,    7201,    7109,    7107,    7095,    7110,    7202,    7199,    7185,    7188
    1383,    1854,    1855,    1859,    1869,    1827,    1828,    1832,    1842,    7203,    7204,    7180,    7205,    7112,    7113,    7089,    7114,    7206,    7207,    7182,    7171
    1384,    1853,    1854,    1869,    1870,    1826,    1827,    1842,    1843,    7208,    7205,    7170,    7138,    7117,    7114,    7079,    7047,    7142,    7206,    7171,    7143
    1385,    1856,    1857,    1868,    1867,    1829,    1830,    1841,    1840,    7209,    7151,    7191,    7210,    7118,    7060,    7100,    7119,    7211,    7152,    7153,    7193
    1386,    1728,    1718,    1856,    1867,    1729,    1719,    1829,    1840,    6697,    7212,    7210,    7213,    6699,    7121,    7119,    7122,    6700,    6679,    7211,    7193
    1387,    1738,    1728,    1867,    1866,    1739,    1729,    1840,    1839,    6718,    7213,    7190,    7214,    6720,    7122,    7099,    7123,    6721,    6700,    7193,    7192
    1388,    1748,    1738,    1866,    1865,    1749,    1739,    1839,    1838,    6739,    7214,    7194,    7215,    6741,    7123,    7103,    7124,    6742,    6721,    7192,    7196
    1389,    1758,    1748,    1865,    1864,    1759,    1749,    1838,    1837,    6760,    7215,    7197,    7216,    6762,    7124,    7106,    7125,    6763,    6742,    7196,    7199
    1390,    1768,    1758,    1864,    1863,    1769,    1759,    1837,    1836,    6781,    7216,    7200,    7217,    6783,    7125,    7109,    7126,    6784,    6763,    7199,    7202
    1391,    1633,    1576,    1768,    1863,    1632,    1577,    1769,    1836,    6441,    6796,    7217,    7218,    6440,    6797,    7126,    7127,    6424,    6301,    6784,    7202
    1392,    1623,    1633,    1863,    1862,    1622,    1632,    1836,    1835,    6423,    7218,    7201,    7219,    6421,    7127,    7110,    7128,    6403,    6424,    7202,    7188
    1393,    1613,    1623,    1862,    1861,    1612,    1622,    1835,    1834,    6402,    7219,    7187,    7220,    6400,    7128,    7096,    7129,    6382,    6403,    7188,    7179
    1394,    1603,    1613,    1861,    1860,    1602,    1612,    1834,    1833,    6381,    7220,    7176,    7221,    6379,    7129,    7085,    7130,    6361,    6382,    7179,    7178
    1395,    1593,    1603,    1860,    1859,    1592,    1602,    1833,    1832,    6360,    7221,    7181,    7222,    6358,    7130,    7090,    7131,    6340,    6361,    7178,    7182
    1396,    1583,    1593,    1859,    1855,    1582,    1592,    1832,    1828,    6339,    7222,    7204,    7223,    6337,    7131,    7113,    7132,    6319,    6340,    7182,    7207
    1397,    1688,    1661,    1702,    1858,    1687,    1662,    1703,    1831,    6617,    6653,    7145,    7163,    6616,    6654,    7054,    7072,    6600,    6543,    6641,    7148
    1398,    1668,    1678,    1857,    1856,    1667,    1677,    1830,    1829,    6578,    7162,    7209,    7224,    6576,    7071,    7118,    7133,    6558,    6579,    7152,    7211
    1399,    1644,    1668,    1856,    1718,    1643,    1667,    1829,    1719,    6557,    7224,    7212,    6676,    6555,    7133,    7121,    6678,    6528,    6558,    7211,    6679
    1400,     338,     316,    1583,    1855,     341,     317,    1582,    1828,    3222,    6318,    7223,    7225,    3229,    6316,    7132,    7134,    3228,    3175,    6319,    7207
    1401,     339,     338,    1855,    1854,     342,     341,    1828,    1827,    3224,    7225,    7203,    7226,    3231,    7134,    7112,    7135,    3230,    3228,    7207,    7206
    1402,     340,     339,    1854,    1853,     343,     342,    1827,    1826,    3226,    7226,    7208,    7227,    3233,    7135,    7117,    7136,    3232,    3230,    7206,    7142
    1403,     303,     340,    1853,    1702,     302,     343,    1826,    1703,    3227,    7227,    7146,    6638,    3234,    7136,    7055,    6640,    3156,    3232,    7142,    6641
    1404,    1906,    1880,    1897,    1904,    1879,    1853,    1870,    1877,    7228,    7229,    7230,    7231,    7137,    7138,    7139,    7140,    7232,    7233,    7234,    7235
    1405,    1885,    1701,    1880,    1906,    1858,    1702,    1853,    1879,    7236,    7237,    7228,    7238,    7145,    7146,    7137,    7147,    7239,    6639,    7233,    7232
    1406,    1884,    1885,    1906,    1895,    1857,    1858,    1879,    1868,    7240,    7238,    7241,    7242,    7149,    7147,    7150,    7151,    7243,    7239,    7232,    7244
    1407,    1895,    1906,    1904,    1900,    1868,    1879,    1877,    1873,    7241,    7231,    7245,    7246,    7150,    7140,    7154,    7155,    7244,    7232,    7235,    7247
    1408,    1897,    1905,    1902,    1904,    1870,    1878,    1875,    1877,    7248,    7249,    7250,    7230,    7157,    7158,    7159,    7139,    7234,    7251,    7252,    7235
    1409,    1885,    1884,    1679,    1689,    1858,    1857,    1678,    1688,    7240,    7253,    6601,    7254,    7149,    7162,    6599,    7163,    7239,    7243,    6581,    6602
    1410,    1903,    1901,    1902,    1905,    1876,    1874,    1875,    1878,    7255,    7256,    7249,    7257,    7164,    7165,    7158,    7166,    7258,    7259,    7252,    7251
    1411,    1896,    1903,    1905,    1897,    1869,    1876,    1878,    1870,    7260,    7257,    7248,    7261,    7169,    7166,    7157,    7170,    7262,    7258,    7251,    7234
    1412,    1902,    1899,    1900,    1904,    1875,    1872,    1873,    1877,    7263,    7264,    7245,    7250,    7172,    7173,    7154,    7159,    7252,    7265,    7247,    7235
    1413,    1903,    1887,    1888,    1901,    1876,    1860,    1861,    1874,    7266,    7267,    7268,    7255,    7175,    7176,    7177,    7164,    7258,    7269,    7270,    7259
    1414,    1896,    1886,    1887,    1903,    1869,    1859,    1860,    1876,    7271,    7272,    7266,    7260,    7180,    7181,    7175,    7169,    7262,    7273,    7269,    7258
    1415,    1899,    1902,    1901,    1898,    1872,    1875,    1874,    1871,    7263,    7256,    7274,    7275,    7172,    7165,    7183,    7184,    7265,    7252,    7259,    7276
    1416,    1889,    1898,    1901,    1888,    1862,    1871,    1874,    1861,    7277,    7274,    7268,    7278,    7186,    7183,    7177,    7187,    7279,    7276,    7259,    7270
    1417,    1900,    1893,    1894,    1895,    1873,    1866,    1867,    1868,    7280,    7281,    7282,    7246,    7189,    7190,    7191,    7155,    7247,    7283,    7284,    7244
    1418,    1892,    1893,    1900,    1899,    1865,    1866,    1873,    1872,    7285,    7280,    7264,    7286,    7194,    7189,    7173,    7195,    7287,    7283,    7247,    7265
    1419,    1891,    1892,    1899,    1898,    1864,    1865,    1872,    1871,    7288,    7286,    7275,    7289,    7197,    7195,    7184,    7198,    7290,    7287,    7265,    7276
    1420,    1890,    1891,    1898,    1889,    1863,    1864,    1871,    1862,    7291,    7289,    7277,    7292,    7200,    7198,    7186,    7201,    7293,    7290,    7276,    7279
    1421,    1881,    1882,    1886,    1896,    1854,    1855,    1859,    1869,    7294,    7295,    7271,    7296,    7203,    7204,    7180,    7205,    7297,    7298,    7273,    7262
    1422,    1880,    1881,    1896,    1897,    1853,    1854,    1869,    1870,    7299,    7296,    7261,    7229,    7208,    7205,    7170,    7138,    7233,    7297,    7262,    7234
    1423,    1883,    1884,    1895,    1894,    1856,    1857,    1868,    1867,    7300,    7242,    7282,    7301,    7209,    7151,    7191,    7210,    7302,    7243,    7244,    7284
    1424,    1727,    1717,    1883,    1894,    1728,    1718,    1856,    1867,    6695,    7303,    7301,    7304,    6697,    7212,    7210,    7213,    6698,    6677,    7302,    7284
    1425,    1737,    1727,    1894,    1893,    1738,    1728,    1867,    1866,    6716,    7304,    7281,    7305,    6718,    7213,    7190,    7214,    6719,    6698,    7284,    7283
    1426,    1747,    1737,    1893,    1892,    1748,    1738,    1866,    1865,    6737,    7305,    7285,    7306,    6739,    7214,    7194,    7215,    6740,    6719,    7283,    7287
    1427,    1757,    1747,    1892,    1891,    1758,    1748,    1865,    1864,    6758,    7306,    7288,    7307,    6760,    7215,    7197,    7216,    6761,    6740,    7287,    7290
    1428,    1767,    1757,    1891,    1890,    1768,    1758,    1864,    1863,    6779,    7307,    7291,    7308,    6781,    7216,    7200,    7217,    6782,    6761,    7290,    7293
    1429,    1634,    1575,    1767,    1890,    1633,    1576,    1768,    1863,    6442,    6795,    7308,    7309,    6441,    6796,    7217,    7218,    6426,    6300,    6782,    7293
    1430,    1624,    1634,    1890,    1889,    1623,    1633,    1863,    1862,    6425,    7309,    7292,    7310,    6423,    7218,    7201,    7219,    6405,    6426,    7293,    7279
    1431,    1614,    1624,    1889,    1888,    1613,    1623,    1862,    1861,    6404,    7310,    7278,    7311,    6402,    7219,    7187,    7220,    6384,    6405,    7279,    7270
    1432,    1604,    1614,    1888,    1887,    1603,    1613,    1861,    1860,    6383,    7311,    7267,    7312,    6381,    7220,    7176,    7221,    6363,    6384,    7270,    7269
    1433,    1594,    1604,    1887,    1886,    1593,    1603,    1860,    1859,    6362,    7312,    7272,    7313,    6360,    7221,    7181,    7222,    6342,    6363,    7269,    7273
    1434,    1584,    1594,    1886,    1882,    1583,    1593,    1859,    1855,    6341,    7313,    7295,    7314,    6339,    7222,    7204,    7223,    6321,    6342,    7273,    7298
    1435,    1689,    1660,    1701,    1885,    1688,    1661,    1702,    1858,    6618,    6652,    7236,    7254,    6617,    6653,    7145,    7163,    6602,    6542,    6639,    7239
    1436,    1669,    1679,    1884,    1883,    1668,    1678,    1857,    1856,    6580,    7253,    7300,    7315,    6578,    7162,    7209,    7224,    6560,    6581,    7243,    7302
    1437,    1645,    1669,    1883,    1717,    1644,    1668,    1856,    1718,    6559,    7315,    7303,    6674,    6557,    7224,    7212,    6676,    6529,    6560,    7302,    6677
    1438,     335,     315,    1584,    1882,     338,     316,    1583,    1855,    3215,    6320,    7314,    7316,    3222,    6318,    7223,    7225,    3221,    3174,    6321,    7298
    1439,     336,     335,    1882,    1881,     339,     338,    1855,    1854,    3217,    7316,    7294,    7317,    3224,    7225,    7203,    7226,    3223,    3221,    7298,    7297
    1440,     337,     336,    1881,    1880,     340,     339,    1854,    1853,    3219,    7317,    7299,    7318,    3226,    7226,    7208,    7227,    3225,    3223,    7297,    7233
    1441,     304,     337,    1880,    1701,     303,     340,    1853,    1702,    3220,    7318,    7237,    6636,    3227,    7227,    7146,    6638,    3157,    3225,    7233,    6639
    1442,    1933,    1907,    1924,    1931,    1906,    1880,    1897,    1904,    7319,    7320,    7321,    7322,    7228,    7229,    7230,    7231,    7323,    7324,    7325,    7326
    1443,    1912,    1700,    1907,    1933,    1885,    1701,    1880,    1906,    7327,    7328,    7319,    7329,    7236,    7237,    7228,    7238,    7330,    6637,    7324,    7323
    1444,    1911,    1912,    1933,    1922,    1884,    1885,    1906,    1895,    7331,    7329,    7332,    7333,    7240,    7238,    7241,    7242,    7334,    7330,    7323,    7335
    1445,    1922,    1933,    1931,    1927,    1895,    1906,    1904,    1900,    7332,    7322,    7336,    7337,    7241,    7231,    7245,    7246,    7335,    7323,    7326,    7338
    1446,    1924,    1932,    1929,    1931,    1897,    1905,    1902,    1904,    7339,    7340,    7341,    7321,    7248,    7249,    7250,    7230,    7325,    7342,    7343,    7326
    1447,    1912,    1911,    1680,    1690,    1885,    1884,    1679,    1689,    7331,    7344,    6603,    7345,    7240,    7253,    6601,    7254,    7330,    7334,    6583,    6604
    1448,    1930,    1928,    1929,    1932,    1903,    1901,    1902,    1905,    7346,    7347,    7340,    7348,    7255,    7256,    7249,    7257,    7349,    7350,    7343,    7342
    1449,    1923,    1930,    1932,    1924,    1896,    1903,    1905,    1897,    7351,    7348,    7339,    7352,    7260,    7257,    7248,    7261,    7353,    7349,    7342,    7325
    1450,    1929,    1926,    1927,    1931,    1902,    1899,    1900,    1904,    7354,    7355,    7336,    7341,    7263,    7264,    7245,    7250,    7343,    7356,    7338,    7326
    1451,    1930,    1914,    1915,    1928,    1903,    1887,    1888,    1901,    7357,    7358,    7359,    7346,    7266,    7267,    7268,    7255,    7349,    7360,    7361,    7350
    1452,    1923,    1913,    1914,    1930,    1896,    1886,    1887,    1903,    7362,    7363,    7357,    7351,    7271,    7272,    7266,    7260,    7353,    7364,    7360,    7349
    1453,    1926,    1929,    1928,    1925,    1899,    1902,    1901,    1898,    7354,    7347,    7365,    7366,    7263,    7256,    7274,    7275,    7356,    7343,    7350,    7367
    1454,    1916,    1925,    1928,    1915,    1889,    1898,    1901,    1888,    7368,    7365,    7359,    7369,    7277,    7274,    7268,    7278,    7370,    7367,    7350,    7361
    1455,    1927,    1920,    1921,    1922,    1900,    1893,    1894,    1895,    7371,    7372,    7373,    7337,    7280,    7281,    7282,    7246,    7338,    7374,    7375,    7335
    1456,    1919,    1920,    1927,    1926,    1892,    1893,    1900,    1899,    7376,    7371,    7355,    7377,    7285,    7280,    7264,    7286,    7378,    7374,    7338,    7356
    1457,    1918,    1919,    1926,    1925,    1891,    1892,    1899,    1898,    7379,    7377,    7366,    7380,    7288,    7286,    7275,    7289,    7381,    7378,    7356,    7367
    1458,    1917,    1918,    1925,    1916,    1890,    1891,    1898,    1889,    7382,    7380,    7368,    7383,    7291,    7289,    7277,    7292,    7384,    7381,    7367,    7370
    1459,    1908,    1909,    1913,    1923,    1881,    1882,    1886,    1896,    7385,    7386,    7362,    7387,    7294,    7295,    7271,    7296,    7388,    7389,    7364,    7353
    1460,    1907,    1908,    1923,    1924,    1880,    1881,    1896,    1897,    7390,    7387,    7352,    7320,    7299,    7296,    7261,    7229,    7324,    7388,    7353,    7325
    1461,    1910,    1911,    1922,    1921,    1883,    1884,    1895,    1894,    7391,    7333,    7373,    7392,    7300,    7242,    7282,    7301,    7393,    7334,    7335,    7375
    1462,    1726,    1716,    1910,    1921,    1727,    1717,    1883,    1894,    6693,    7394,    7392,    7395,    6695,    7303,    7301,    7304,    6696,    6675,    7393,    7375
    1463,    1736,    1726,    1921,    1920,    1737,    1727,    1894,    1893,    6714,    7395,    7372,    7396,    6716,    7304,    7281,    7305,    6717,    6696,    7375,    7374
    1464,    1746,    1736,    1920,    1919,    1747,    1737,    1893,    1892,    6735,    7396,    7376,    7397,    6737,    7305,    7285,    7306,    6738,    6717,    7374,    7378
    1465,    1756,    1746,    1919,    1918,    1757,    1747,    1892,    1891,    6756,    7397,    7379,    7398,    6758,    7306,    7288,    7307,    6759,    6738,    7378,    7381
    1466,    1766,    1756,    1918,    1917,    1767,    1757,    1891,    1890,    6777,    7398,    7382,    7399,    6779,    7307,    7291,    7308,    6780,    6759,    7381,    7384
    1467,    1635,    1574,    1766,    1917,    1634,    1575,    1767,    1890,    6443,    6794,    7399,    7400,    6442,    6795,    7308,    7309,    6428,    6299,    6780,    7384
    1468,    1625,    1635,    1917,    1916,    1624,    1634,    1890,    1889,    6427,    7400,    7383,    7401,    6425,    7309,    7292,    7310,    6407,    6428,    7384,    7370
    1469,    1615,    1625,    1916,    1915,    1614,    1624,    1889,    1888,    6406,    7401,    7369,    7402,    6404,    7310,    7278,    7311,    6386,    6407,    7370,    7361
    1470,    1605,    1615,    1915,    1914,    1604,    1614,    1888,    1887,    6385,    7402,    7358,    7403,    6383,    7311,    7267,    7312,    6365,    6386,    7361,    7360
    1471,    1595,    1605,    1914,    1913,    1594,    1604,    1887,    1886,    6364,    7403,    7363,    7404,    6362,    7312,    7272,    7313,    6344,    6365,    7360,    7364
    1472,    1585,    1595,    1913,    1909,    1584,    1594,    1886,    1882,    6343,    7404,    7386,    7405,    6341,    7313,    7295,    7314,    6323,    6344,    7364,    7389
    1473,    1690,    1659,    1700,    1912,    1689,    1660,    1701,    1885,    6619,    6651,    7327,    7345,    6618,    6652,    7236,    7254,    6604,    6541,    6637,    7330
    1474,    1670,    1680,    1911,    1910,    1669,    1679,    1884,    1883,    6582,    7344,    7391,    7406,    6580,    7253,    7300,    7315,    6562,    6583,    7334,    7393
    1475,    1646,    1670,    1910,    1716,    1645,    1669,    1883,    1717,    6561,    7406,    7394,    6672,    6559,    7315,    7303,    6674,    6530,    6562,    7393,    6675
    1476,     332,     314,    1585,    1909,     335,     315,    1584,    1882,    3208,    6322,    7405,    7407,    3215,    6320,    7314,    7316,    3214,    3173,    6323,    7389
    1477,     333,     332,    1909,    1908,     336,     335,    1882,    1881,    3210,    7407,    7385,    7408,    3217,    7316,    7294,    7317,    3216,    3214,    7389,    7388
    1478,     334,     333,    1908,    1907,     337,     336,    1881,    1880,    3212,    7408,    7390,    7409,    3219,    7317,    7299,    7318,    3218,    3216,    7388,    7324
    1479,     305,     334,    1907,    1700,     304,     337,    1880,    1701,    3213,    7409,    7328,    6634,    3220,    7318,    7237,    6636,    3158,    3218,    7324,    6637
    1480,    1960,    1934,    1951,    1958,    1933,    1907,    1924,    1931,    7410,    7411,    7412,    7413,    7319,    7320,    7321,    7322,    7414,    7415,    7416,    7417
    1481,    1939,    1699,    1934,    1960,    1912,    1700,    1907,    1933,    7418,    7419,    7410,    7420,    7327,    7328,    7319,    7329,    7421,    6635,    7415,    7414
    1482,    1938,    1939,    1960,    1949,    1911,    1912,    1933,    1922,    7422,    7420,    7423,    7424,    7331,    7329,    7332,    7333,    7425,    7421,    7414,    7426
    1483,    1949,    1960,    1958,    1954,    1922,    1933,    1931,    1927,    7423,    7413,    7427,    7428,    7332,    7322,    7336,    7337,    7426,    7414,    7417,    7429
    1484,    1951,    1959,    1956,    1958,    1924,    1932,    1929,    1931,    7430,    7431,    7432,    7412,    7339,    7340,    7341,    7321,    7416,    7433,    7434,    7417
    1485,    1939,    1938,    1681,    1691,    1912,    1911,    1680,    1690,    7422,    7435,    6605,    7436,    7331,    7344,    6603,    7345,    7421,    7425,    6585,    6606
    1486,    1957,    1955,    1956,    1959,    1930,    1928,    1929,    1932,    7437,    7438,    7431,    7439,    7346,    7347,    7340,    7348,    7440,    7441,    7434,    7433
    1487,    1950,    1957,    1959,    1951,    1923,    1930,    1932,    1924,    7442,    7439,    7430,    7443,    7351,    7348,    7339,    7352,    7444,    7440,    7433,    7416
    1488,    1956,    1953,    1954,    1958,    1929,    1926,    1927,    1931,    7445,    7446,    7427,    7432,    7354,    7355,    7336,    7341,    7434,    7447,    7429,    7417
    1489,    1957,    1941,    1942,    1955,    1930,    1914,    1915,    1928,    7448,    7449,    7450,    7437,    7357,    7358,    7359,    7346,    7440,    7451,    7452,    7441
    1490,    1950,    1940,    1941,    1957,    1923,    1913,    1914,    1930,    7453,    7454,    7448,    7442,    7362,    7363,    7357,    7351,    7444,    7455,    7451,    7440
    1491,    1953,    1956,    1955,    1952,    1926,    1929,    1928,    1925,    7445,    7438,    7456,    7457,    7354,    7347,    7365,    7366,    7447,    7434,    7441,    7458
    1492,    1943,    1952,    1955,    1942,    1916,    1925,    1928,    1915,    7459,    7456,    7450,    7460,    7368,    7365,    7359,    7369,    7461,    7458,    7441,    7452
    1493,    1954,    1947,    1948,    1949,    1927,    1920,    1921,    1922,    7462,    7463,    7464,    7428,    7371,    7372,    7373,    7337,    7429,    7465,    7466,    7426
    1494,    1946,    1947,    1954,    1953,    1919,    1920,    1927,    1926,    7467,    7462,    7446,    7468,    7376,    7371,    7355,    7377,    7469,    7465,    7429,    7447
    1495,    1945,    1946,    1953,    1952,    1918,    1919,    1926,    1925,    7470,    7468,    7457,    7471,    7379,    7377,    7366,    7380,    7472,    7469,    7447,    7458
    1496,    1944,    1945,    1952,    1943,    1917,    1918,    1925,    1916,    7473,    7471,    7459,    7474,    7382,    7380,    7368,    7383,    7475,    7472,    7458,    7461
    1497,    1935,    1936,    1940,    1950,    1908,    1909,    1913,    1923,    7476,    7477,    7453,    7478,    7385,    7386,    7362,    7387,    7479,    7480,    7455,    7444
    1498,    1934,    1935,    1950,    1951,    1907,    1908,    1923,    1924,    7481,    7478,    7443,    7411,    7390,    7387,    7352,    7320,    7415,    7479,    7444,    7416
    1499,    1937,    1938,    1949,    1948,    1910,    1911,    1922,    1921,    7482,    7424,    7464,    7483,    7391,    7333,    7373,    7392,    7484,    7425,    7426,    7466
    1500,    1725,    1715,    1937,    1948,    1726,    1716,    1910,    1921,    6691,    7485,    7483,    7486,    6693,    7394,    7392,    7395,    6694,    6673,    7484,    7466
    1501,    1735,    1725,    1948,    1947,    1736,    1726,    1921,    1920,    6712,    7486,    7463,    7487,    6714,    7395,    7372,    7396,    6715,    6694,    7466,    7465
    1502,    1745,    1735,    1947,    1946,    1746,    1736,    1920,    1919,    6733,    7487,    7467,    7488,    6735,    7396,    7376,    7397,    6736,    6715,    7465,    7469
    1503,    1755,    1745,    1946,    1945,    1756,    1746,    1919,    1918,    6754,    7488,    7470,    7489,    6756,    7397,    7379,    7398,    6757,    6736,    7469,    7472
    1504,    1765,    1755,    1945,    1944,    1766,    1756,    1918,    1917,    6775,    7489,    7473,    7490,    6777,    7398,    7382,    7399,    6778,    6757,    7472,    7475
    1505,    1636,    1573,    1765,    1944,    1635,    1574,    1766,    1917,    6444,    6793,    7490,    7491,    6443,    6794,    7399,    7400,    6430,    6298,    6778,    7475
    1506,    1626,    1636,    1944,    1943,    1625,    1635,    1917,    1916,    6429,    7491,    7474,    7492,    6427,    7400,    7383,    7401,    6409,    6430,    7475,    7461
    1507,    1616,    1626,    1943,    1942,    1615,    1625,    1916,    1915,    6408,    7492,    7460,    7493,    6406,    7401,    7369,    7402,    6388,    6409,    7461,    7452
    1508,    1606,    1616,    1942,    1941,    1605,    1615,    1915,    1914,    6387,    7493,    7449,    7494,    6385,    7402,    7358,    7403,    6367,    6388,    7452,    7451
    1509,    1596,    1606,    1941,    1940,    1595,    1605,    1914,    1913,    6366,    7494,    7454,    7495,    6364,    7403,    7363,    7404,    6346,    6367,    7451,    7455
    1510,    1586,    1596,    1940,    1936,    1585,    1595,    1913,    1909,    6345,    7495,    7477,    7496,    6343,    7404,    7386,    7405,    6325,    6346,    7455,    7480
    1511,    1691,    1658,    1699,    1939,    1690,    1659,    1700,    1912,    6620,    6650,    7418,    7436,    6619,    6651,    7327,    7345,    6606,    6540,    6635,    7421
    1512,    1671,    1681,    1938,    1937,    1670,    1680,    1911,    1910,    6584,    7435,    7482,    7497,    6582,    7344,    7391,    7406,    6564,    6585,    7425,    7484
    1513,    1647,    1671,    1937,    1715,    1646,    1670,    1910,    1716,    6563,    7497,    7485,    6670,    6561,    7406,    7394,    6672,    6531,    6564,    7484,    6673
    1514,     329,     313,    1586,    1936,     332,     314,    1585,    1909,    3201,    6324,    7496,    7498,    3208,    6322,    7405,    7407,    3207,    3172,    6325,    7480
    1515,     330,     329,    1936,    1935,     333,     332,    1909,    1908,    3203,    7498,    7476,    7499,    3210,    7407,    7385,    7408,    3209,    3207,    7480,    7479
    1516,     331,     330,    1935,    1934,     334,     333,    1908,    1907,    3205,    7499,    7481,    7500,    3212,    7408,    7390,    7409,    3211,    3209,    7479,    7415
    1517,     306,     331,    1934,    1699,     305,     334,    1907,    1700,    3206,    7500,    7419,    6632,    3213,    7409,    7328,    6634,    3159,    3211,    7415,    6635
    1518,    1987,    1961,    1978,    1985,    1960,    1934,    1951,    1958,    7501,    7502,    7503,    7504,    7410,    7411,    7412,    7413,    7505,    7506,    7507,    7508
    1519,    1966,    1698,    1961,    1987,    1939,    1699,    1934,    1960,    7509,    7510,    7501,    7511,    7418,    7419,    7410,    7420,    7512,    6633,    7506,    7505
    1520,    1965,    1966,    1987,    1976,    1938,    1939,    1960,    1949,    7513,    7511,    7514,    7515,    7422,    7420,    7423,    7424,    7516,    7512,    7505,    7517
    1521,    1976,    1987,    1985,    1981,    1949,    1960,    1958,    1954,    7514,    7504,    7518,    7519,    7423,    7413,    7427,    7428,    7517,    7505,    7508,    7520
    1522,    1978,    1986,    1983,    1985,    1951,    1959,    1956,    1958,    7521,    7522,    7523,    7503,    7430,    7431,    7432,    7412,    7507,    7524,    7525,    7508
    1523,    1966,    1965,    1682,    1692,    1939,    1938,    1681,    1691,    7513,    7526,    6607,    7527,    7422,    7435,    6605,    7436,    7512,    7516,    6587,    6608
    1524,    1984,    1982,    1983,    1986,    1957,    1955,    1956,    1959,    7528,    7529,    7522,    7530,    7437,    7438,    7431,    7439,    7531,    7532,    7525,    7524
    1525,    1977,    1984,    1986,    1978,    1950,    1957,    1959,    1951,    7533,    7530,    7521,    7534,    7442,    7439,    7430,    7443,    7535,    7531,    7524,    7507
    1526,    1983,    1980,    1981,    1985,    1956,    1953,    1954,    1958,    7536,    7537,    7518,    7523,    7445,    7446,    7427,    7432,    7525,    7538,    7520,    7508
    1527,    1984,    1968,    1969,    1982,    1957,    1941,    1942,    1955,    7539,    7540,    7541,    7528,    7448,    7449,    7450,    7437,    7531,    7542,    7543,    7532
    1528,    1977,    1967,    1968,    1984,    1950,    1940,    1941,    1957,    7544,    7545,    7539,    7533,    7453,    7454,    7448,    7442,    7535,    7546,    7542,    7531
    1529,    1980,    1983,    1982,    1979,    1953,    1956,    1955,    1952,    7536,    7529,    7547,    7548,    7445,    7438,    7456,    7457,    7538,    7525,    7532,    7549
    1530,    1970,    1979,    1982,    1969,    1943,    1952,    1955,    1942,    7550,    7547,    7541,    7551,    7459,    7456,    7450,    7460,    7552,    7549,    7532,    7543
    1531,    1981,    1974,    1975,    1976,    1954,    1947,    1948,    1949,    7553,    7554,    7555,    7519,    7462,    7463,    7464,    7428,    7520,    7556,    7557,    7517
    1532,    1973,    1974,    1981,    1980,    1946,    1947,    1954,    1953,    7558,    7553,    7537,    7559,    7467,    7462,    7446,    7468,    7560,    7556,    7520,    7538
    1533,    1972,    1973,    1980,    1979,    1945,    1946,    1953,    1952,    7561,    7559,    7548,    7562,    7470,    7468,    7457,    7471,    7563,    7560,    7538,    7549
    1534,    1971,    1972,    1979,    1970,    1944,    1945,    1952,    1943,    7564,    7562,    7550,    7565,    7473,    7471,    7459,    7474,    7566,    7563,    7549,    7552
    1535,    1962,    1963,    1967,    1977,    1935,    1936,    1940,    1950,    7567,    7568,    7544,    7569,    7476,    7477,    7453,    7478,    7570,    7571,    7546,    7535
    1536,    1961,    1962,    1977,    1978,    1934,    1935,    1950,    1951,    7572,    7569,    7534,    7502,    7481,    7478,    7443,    7411,    7506,    7570,    7535,    7507
    1537,    1964,    1965,    1976,    1975,    1937,    1938,    1949,    1948,    7573,    7515,    7555,    7574,    7482,    7424,    7464,    7483,    7575,    7516,    7517,    7557
    1538,    1724,    1714,    1964,    1975,    1725,    1715,    1937,    1948,    6689,    7576,    7574,    7577,    6691,    7485,    7483,    7486,    6692,    6671,    7575,    7557
    1539,    1734,    1724,    1975,    1974,    1735,    1725,    1948,    1947,    6710,    7577,    7554,    7578,    6712,    7486,    7463,    7487,    6713,    6692,    7557,    7556
    1540,    1744,    1734,    1974,    1973,    1745,    1735,    1947,    1946,    6731,    7578,    7558,    7579,    6733,    7487,    7467,    7488,    6734,    6713,    7556,    7560
    1541,    1754,    1744,    1973,    1972,    1755,    1745,    1946,    1945,    6752,    7579,    7561,    7580,    6754,    7488,    7470,    7489,    6755,    6734,    7560,    7563
    1542,    1764,    1754,    1972,    1971,    1765,    1755,    1945,    1944,    6773,    7580,    7564,    7581,    6775,    7489,    7473,    7490,    6776,    6755,    7563,    7566
    1543,    1637,    1572,    1764,    1971,    1636,    1573,    1765,    1944,    6445,    6792,    7581,    7582,    6444,    6793,    7490,    7491,    6432,    6297,    6776,    7566
    1544,    1627,    1637,    1971,    1970,    1626,    1636,    1944,    1943,    6431,    7582,    7565,    7583,    6429,    7491,    7474,    7492,    6411,    6432,    7566,    7552
    1545,    1617,    1627,    1970,    1969,    1616,    1626,    1943,    1942,    6410,    7583,    7551,    7584,    6408,    7492,    7460,    7493,    6390,    6411,    7552,    7543
    1546,    1607,    1617,    1969,    1968,    1606,    1616,    1942,    1941,    6389,    7584,    7540,    7585,    6387,    7493,    7449,    7494,    6369,    6390,    7543,    7542
    1547,    1597,    1607,    1968,    1967,    1596,    1606,    1941,    1940,    6368,    7585,    7545,    7586,    6366,    7494,    7454,    7495,    6348,    6369,    7542,    7546
    1548,    1587,    1597,    1967,    1963,    1586,    1596,    1940,    1936,    6347,    7586,    7568,    7587,    6345,    7495,    7477,    7496,    6327,    6348,    7546,    7571
    1549,    1692,    1657,    1698,    1966,    1691,    1658,    1699,    1939,    6621,    6649,    7509,    7527,    6620,    6650,    7418,    7436,    6608,    6539,    6633,    7512
    1550,    1672,    1682,    1965,    1964,    1671,    1681,    1938,    1937,    6586,    7526,    7573,    7588,    6584,    7435,    7482,    7497,    6566,    6587,    7516,    7575
    1551,    1648,    1672,    1964,    1714,    1647,    1671,    1937,    1715,    6565,    7588,    7576,    6668,    6563,    7497,    7485,    6670,    6532,    6566,    7575,    6671
    1552,     326,     312,    1587,    1963,     329,     313,    1586,    1936,    3194,    6326,    7587,    7589,    3201,    6324,    7496,    7498,    3200,    3171,    6327,    7571
    1553,     327,     326,    1963,    1962,     330,     329,    1936,    1935,    3196,    7589,    7567,    7590,    3203,    7498,    7476,    7499,    3202,    3200,    7571,    7570
    1554,     328,     327,    1962,    1961,     331,     330,    1935,    1934,    3198,    7590,    7572,    7591,    3205,    7499,    7481,    7500,    3204,    3202,    7570,    7506
    1555,     307,     328,    1961,    1698,     306,     331,    1934,    1699,    3199,    7591,    7510,    6630,    3206,    7500,    7419,    6632,    3160,    3204,    7506,    6633
    1556,    2014,    1988,    2005,    2012,    1987,    1961,    1978,    1985,    7592,    7593,    7594,    7595,    7501,    7502,    7503,    7504,    7596,    7597,    7598,    7599
    1557,    1993,    1697,    1988,    2014,    1966,    1698,    1961,    1987,    7600,    7601,    7592,    7602,    7509,    7510,    7501,    7511,    7603,    6631,    7597,    7596
    1558,    1992,    1993,    2014,    2003,    1965,    1966,    1987,    1976,    7604,    7602,    7605,    7606,    7513,    7511,    7514,    7515,    7607,    7603,    7596,    7608
    1559,    2003,    2014,    2012,    2008,    1976,    1987,    1985,    1981,    7605,    7595,    7609,    7610,    7514,    7504,    7518,    7519,    7608,    7596,    7599,    7611
    1560,    2005,    2013,    2010,    2012,    1978,    1986,    1983,    1985,    7612,    7613,    7614,    7594,    7521,    7522,    7523,    7503,    7598,    7615,    7616,    7599
    1561,    1993,    1992,    1683,    1693,    1966,    1965,    1682,    1692,    7604,    7617,    6609,    7618,    7513,    7526,    6607,    7527,    7603,    7607,    6589,    6610
    1562,    2011,    2009,    2010,    2013,    1984,    1982,    1983,    1986,    7619,    7620,    7613,    7621,    7528,    7529,    7522,    7530,    7622,    7623,    7616,    7615
    1563,    2004,    2011,    2013,    2005,    1977,    1984,    1986,    1978,    7624,    7621,    7612,    7625,    7533,    7530,    7521,    7534,    7626,    7622,    7615,    7598
    1564,    2010,    2007,    2008,    2012,    1983,    1980,    1981,    1985,    7627,    7628,    7609,    7614,    7536,    7537,    7518,    7523,    7616,    7629,    7611,    7599
    1565,    2011,    1995,    1996,    2009,    1984,    1968,    1969,    1982,    7630,    7631,    7632,    7619,    7539,    7540,    7541,    7528,    7622,    7633,    7634,    7623
    1566,    2004,    1994,    1995,    2011,    1977,    1967,    1968,    1984,    7635,    7636,    7630,    7624,    7544,    7545,    7539,    7533,    7626,    7637,    7633,    7622
    1567,    2007,    2010,    2009,    2006,    1980,    1983,    1982,    1979,    7627,    7620,    7638,    7639,    7536,    7529,    7547,    7548,    7629,    7616,    7623,    7640
    1568,    1997,    2006,    2009,    1996,    1970,    1979,    1982,    1969,    7641,    7638,    7632,    7642,    7550,    7547,    7541,    7551,    7643,    7640,    7623,    7634
    1569,    2008,    2001,    2002,    2003,    1981,    1974,    1975,    1976,    7644,    7645,    7646,    7610,    7553,    7554,    7555,    7519,    7611,    7647,    7648,    7608
    1570,    2000,    2001,    2008,    2007,    1973,    1974,    1981,    1980,    7649,    7644,    7628,    7650,    7558,    7553,    7537,    7559,    7651,    7647,    7611,    7629
    1571,    1999,    2000,    2007,    2006,    1972,    1973,    1980,    1979,    7652,    7650,    7639,    7653,    7561,    7559,    7548,    7562,    7654,    7651,    7629,    7640
    1572,    1998,    1999,    2006,    1997,    1971,    1972,    1979,    1970,    7655,    7653,    7641,    7656,    7564,    7562,    7550,    7565,    7657,    7654,    7640,    7643
    1573,    1989,    1990,    1994,    2004,    1962,    1963,    1967,    1977,    7658,    7659,    7635,    7660,    7567,    7568,    7544,    7569,    7661,    7662,    7637,    7626
    1574,    1988,    1989,    2004,    2005,    1961,    1962,    1977,    1978,    7663,    7660,    7625,    7593,    7572,    7569,    7534,    7502,    7597,    7661,    7626,    7598
    1575,    1991,    1992,    2003,    2002,    1964,    1965,    1976,    1975,    7664,    7606,    7646,    7665,    7573,    7515,    7555,    7574,    7666,    7607,    7608,    7648
    1576,    1723,    1713,    1991,    2002,    1724,    1714,    1964,    1975,    6687,    7667,    7665,    7668,    6689,    7576,    7574,    7577,    6690,    6669,    7666,    7648
    1577,    1733,    1723,    2002,    2001,    1734,    1724,    1975,    1974,    6708,    7668,    7645,    7669,    6710,    7577,    7554,    7578,    6711,    6690,    7648,    7647
    1578,    1743,    1733,    2001,    2000,    1744,    1734,    1974,    1973,    6729,    7669,    7649,    7670,    6731,    7578,    7558,    7579,    6732,    6711,    7647,    7651
    1579,    1753,    1743,    2000,    1999,    1754,    1744,    1973,    1972,    6750,    7670,    7652,    7671,    6752,    7579,    7561,    7580,    6753,    6732,    7651,    7654
    1580,    1763,    1753,    1999,    1998,    1764,    1754,    1972,    1971,    6771,    7671,    7655,    7672,    6773,    7580,    7564,    7581,    6774,    6753,    7654,    7657
    1581,    1638,    1571,    1763,    1998,    1637,    1572,    1764,    1971,    6446,    6791,    7672,    7673,    6445,    6792,    7581,    7582,    6434,    6296,    6774,    7657
    1582,    1628,    1638,    1998,    1997,    1627,    1637,    1971,    1970,    6433,    7673,    7656,    7674,    6431,    7582,    7565,    7583,    6413,    6434,    7657,    7643
    1583,    1618,    1628,    1997,    1996,    1617,    1627,    1970,    1969,    6412,    7674,    7642,    7675,    6410,    7583,    7551,    7584,    6392,    6413,    7643,    7634
    1584,    1608,    1618,    1996,    1995,    1607,    1617,    1969,    1968,    6391,    7675,    7631,    7676,    6389,    7584,    7540,    7585,    6371,    6392,    7634,    7633
    1585,    1598,    1608,    1995,    1994,    1597,    1607,    1968,    1967,    6370,    7676,    7636,    7677,    6368,    7585,    7545,    7586,    6350,    6371,    7633,    7637
    1586,    1588,    1598,    1994,    1990,    1587,    1597,    1967,    1963,    6349,    7677,    7659,    7678,    6347,    7586,    7568,    7587,    6329,    6350,    7637,    7662
    1587,    1693,    1656,    1697,    1993,    1692,    1657,    1698,    1966,    6622,    6648,    7600,    7618,    6621,    6649,    7509,    7527,    6610,    6538,    6631,    7603
    1588,    1673,    1683,    1992,    1991,    1672,    1682,    1965,    1964,    6588,    7617,    7664,    7679,    6586,    7526,    7573,    7588,    6568,    6589,    7607,    7666
    1589,    1649,    1673,    1991,    1713,    1648,    1672,    1964,    1714,    6567,    7679,    7667,    6666,    6565,    7588,    7576,    6668,    6533,    6568,    7666,    6669
    1590,     323,     311,    1588,    1990,     326,     312,    1587,    1963,    3187,    6328,    7678,    7680,    3194,    6326,    7587,    7589,    3193,    3170,    6329,    7662
    1591,     324,     323,    1990,    1989,     327,     326,    1963,    1962,    3189,    7680,    7658,    7681,    3196,    7589,    7567,    7590,    3195,    3193,    7662,    7661
    1592,     325,     324,    1989,    1988,     328,     327,    1962,    1961,    3191,    7681,    7663,    7682,    3198,    7590,    7572,    7591,    3197,    3195,    7661,    7597
    1593,     308,     325,    1988,    1697,     307,     328,    1961,    1698,    3192,    7682,    7601,    6628,    3199,    7591,    7510,    6630,    3161,    3197,    7597,    6631
    1594,    2041,    2015,    2032,    2039,    2014,    1988,    2005,    2012,    7683,    7684,    7685,    7686,    7592,    7593,    7594,    7595,    7687,    7688,    7689,    7690
    1595,    2020,    1696,    2015,    2041,    1993,    1697,    1988,    2014,    7691,    7692,    7683,    7693,    7600,    7601,    7592,    7602,    7694,    6629,    7688,    7687
    1596,    2019,    2020,    2041,    2030,    1992,    1993,    2014,    2003,    7695,    7693,    7696,    7697,    7604,    7602,    7605,    7606,    7698,    7694,    7687,    7699
    1597,    2030,    2041,    2039,    2035,    2003,    2014,    2012,    2008,    7696,    7686,    7700,    7701,    7605,    7595,    7609,    7610,    7699,    7687,    7690,    7702
    1598,    2032,    2040,    2037,    2039,    2005,    2013,    2010,    2012,    7703,    7704,    7705,    7685,    7612,    7613,    7614,    7594,    7689,    7706,    7707,    7690
    1599,    2020,    2019,    1684,    1694,    1993,    1992,    1683,    1693,    7695,    7708,    6611,    7709,    7604,    7617,    6609,    7618,    7694,    7698,    6591,    6612
    1600,    2038,    2036,    2037,    2040,    2011,    2009,    2010,    2013,    7710,    7711,    7704,    7712,    7619,    7620,    7613,    7621,    7713,    7714,    7707,    7706
    1601,    2031,    2038,    2040,    2032,    2004,    2011,    2013,    2005,    7715,    7712,    7703,    7716,    7624,    7621,    7612,    7625,    7717,    7713,    7706,    7689
    1602,    2037,    2034,    2035,    2039,    2010,    2007,    2008,    2012,    7718,    7719,    7700,    7705,    7627,    7628,    7609,    7614,    7707,    7720,    7702,    7690
    1603,    2038,    2022,    2023,    2036,    2011,    1995,    1996,    2009,    7721,    7722,    7723,    7710,    7630,    7631,    7632,    7619,    7713,    7724,    7725,    7714
    1604,    2031,    2021,    2022,    2038,    2004,    1994,    1995,    2011,    7726,    7727,    7721,    7715,    7635,    7636,    7630,    7624,    7717,    7728,    7724,    7713
    1605,    2034,    2037,    2036,    2033,    2007,    2010,    2009,    2006,    7718,    7711,    7729,    7730,    7627,    7620,    7638,    7639,    7720,    7707,    7714,    7731
    1606,    2024,    2033,    2036,    2023,    1997,    2006,    2009,    1996,    7732,    7729,    7723,    7733,    7641,    7638,    7632,    7642,    7734,    7731,    7714,    7725
    1607,    2035,    2028,    2029,    2030,    2008,    2001,    2002,    2003,    7735,    7736,    7737,    7701,    7644,    7645,    7646,    7610,    7702,    7738,    7739,    7699
    1608,    2027,    2028,    2035,    2034,    2000,    2001,    2008,    2007,    7740,    7735,    7719,    7741,    7649,    7644,    7628,    7650,    7742,    7738,    7702,    7720
    1609,    2026,    2027,    2034,    2033,    1999,    2000,    2007,    2006,    7743,    7741,    7730,    7744,    7652,    7650,    7639,    7653,    7745,    7742,    7720,    7731
    1610,    2025,    2026,    2033,    2024,    1998,    1999,    2006,    1997,    7746,    7744,    7732,    7747,    7655,    7653,    7641,    7656,    7748,    7745,    7731,    7734
    1611,    2016,    2017,    2021,    2031,    1989,    1990,    1994,    2004,    7749,    7750,    7726,    7751,    7658,    7659,    7635,    7660,    7752,    7753,    7728,    7717
    1612,    2015,    2016,    2031,    2032,    1988,    1989,    2004,    2005,    7754,    7751,    7716,    7684,    7663,    7660,    7625,    7593,    7688,    7752,    7717,    7689
    1613,    2018,    2019,    2030,    2029,    1991,    1992,    2003,    2002,    7755,    7697,    7737,    7756,    7664,    7606,    7646,    7665,    7757,    7698,    7699,    7739
    1614,    1722,    1712,    2018,    2029,    1723,    1713,    1991,    2002,    6685,    7758,    7756,    7759,    6687,    7667,    7665,    7668,    6688,    6667,    7757,    7739
    1615,    1732,    1722,    2029,    2028,    1733,    1723,    2002,    2001,    6706,    7759,    7736,    7760,    6708,    7668,    7645,    7669,    6709,    6688,    7739,    7738
    1616,    1742,    1732,    2028,    2027,    1743,    1733,    2001,    2000,    6727,    7760,    7740,    7761,    6729,    7669,    7649,    7670,    6730,    6709,    7738,    7742
    1617,    1752,    1742,    2027,    2026,    1753,    1743,    2000,    1999,    6748,    7761,    7743,    7762,    6750,    7670,    7652,    7671,    6751,    6730,    7742,    7745
    1618,    1762,    1752,    2026,    2025,    1763,    1753,    1999,    1998,    6769,    7762,    7746,    7763,    6771,    7671,    7655,    7672,    6772,    6751,    7745,    7748
    1619,    1639,    1570,    1762,    2025,    1638,    1571,    1763,    1998,    6447,    6790,    7763,    7764,    6446,    6791,    7672,    7673,    6436,    6295,    6772,    7748
    1620,    1629,    1639,    2025,    2024,    1628,    1638,    1998,    1997,    6435,    7764,    7747,    7765,    6433,    7673,    7656,    7674,    6415,    6436,    7748,    7734
    1621,    1619,    1629,    2024,    2023,    1618,    1628,    1997,    1996,    6414,    7765,    7733,    7766,    6412,    7674,    7642,    7675,    6394,    6415,    7734,    7725
    1622,    1609,    1619,    2023,    2022,    1608,    1618,    1996,    1995,    6393,    7766,    7722,    7767,    6391,    7675,    7631,    7676,    6373,    6394,    7725,    7724
    1623,    1599,    1609,    2022,    2021,    1598,    1608,    1995,    1994,    6372,    7767,    7727,    7768,    6370,    7676,    7636,    7677,    6352,    6373,    7724,    7728
    1624,    1589,    1599,    2021,    2017,    1588,    1598,    1994,    1990,    6351,    7768,    7750,    7769,    6349,    7677,    7659,    7678,    6331,    6352,    7728,    7753
    1625,    1694,    1655,    1696,    2020,    1693,    1656,    1697,    1993,    6623,    6647,    7691,    7709,    6622,    6648,    7600,    7618,    6612,    6537,    6629,    7694
    1626,    1674,    1684,    2019,    2018,    1673,    1683,    1992,    1991,    6590,    7708,    7755,    7770,    6588,    7617,    7664,    7679,    6570,    6591,    7698,    7757
    1627,    1650,    1674,    2018,    1712,    1649,    1673,    1991,    1713,    6569,    7770,    7758,    6664,    6567,    7679,    7667,    6666,    6534,    6570,    7757,    6667
    1628,     320,     310,    1589,    2017,     323,     311,    1588,    1990,    3180,    6330,    7769,    7771,    3187,    6328,    7678,    7680,    3186,    3169,    6331,    7753
    1629,     321,     320,    2017,    2016,     324,     323,    1990,    1989,    3182,    7771,    7749,    7772,    3189,    7680,    7658,    7681,    3188,    3186,    7753,    7752
    1630,     322,     321,    2016,    2015,     325,     324,    1989,    1988,    3184,    7772,    7754,    7773,    3191,    7681,    7663,    7682,    3190,    3188,    7752,    7688
    1631,     309,     322,    2015,    1696,     308,     325,    1988,    1697,    3185,    7773,    7692,    6626,    3192,    7682,    7601,    6628,    3162,    3190,    7688,    6629
    1632,    2068,    2042,    2059,    2066,    2041,    2015,    2032,    2039,    6461,    6464,    6463,    6462,    7683,    7684,    7685,    7686,    7774,    7775,    7776,    7777
    1633,    2047,    1695,    2042,    2068,    2020,    1696,    2015,    2041,    6465,    6467,    6461,    6466,    7691,    7692,    7683,    7693,    7778,    6627,    7775,    7774
    1634,    2046,    2047,    2068,    2057,    2019,    2020,    2041,    2030,    6468,    6466,    6470,    6469,    7695,    7693,    7696,    7697,    7779,    7778,    7774,    7780
    1635,    2057,    2068,    2066,    2062,    2030,    2041,    2039,    2035,    6470,    6462,    6472,    6471,    7696,    7686,    7700,    7701,    7780,    7774,    7777,    7781
    1636,    2059,    2067,    2064,    2066,    2032,    2040,    2037,    2039,    6473,    6475,    6474,    6463,    7703,    7704,    7705,    7685,    7776,    7782,    7783,    7777
    1637,    2047,    2046,    1653,    1654,    2020,    2019,    1684,    1694,    6468,    6477,    6452,    6476,    7695,    7708,    6611,    7709,    7778,    7779,    6592,    6613
    1638,    2065,    2063,    2064,    2067,    2038,    2036,    2037,    2040,    6478,    6480,    6475,    6479,    7710,    7711,    7704,    7712,    7784,    7785,    7783,    7782
    1639,    2058,    2065,    2067,    2059,    2031,    2038,    2040,    2032,    6481,    6479,    6473,    6482,    7715,    7712,    7703,    7716,    7786,    7784,    7782,    7776
    1640,    2064,    2061,    2062,    2066,    2037,    2034,    2035,    2039,    6483,    6484,    6472,    6474,    7718,    7719,    7700,    7705,    7783,    7787,    7781,    7777
    1641,    2065,    2049,    2050,    2063,    2038,    2022,    2023,    2036,    6485,    6487,    6486,    6478,    7721,    7722,    7723,    7710,    7784,    7788,    7789,    7785
    1642,    2058,    2048,    2049,    2065,    2031,    2021,    2022,    2038,    6488,    6489,    6485,    6481,    7726,    7727,    7721,    7715,    7786,    7790,    7788,    7784
    1643,    2061,    2064,    2063,    2060,    2034,    2037,    2036,    2033,    6483,    6480,    6491,    6490,    7718,    7711,    7729,    7730,    7787,    7783,    7785,    7791
    1644,    2051,    2060,    2063,    2050,    2024,    2033,    2036,    2023,    6492,    6491,    6486,    6493,    7732,    7729,    7723,    7733,    7792,    7791,    7785,    7789
    1645,    2062,    2055,    2056,    2057,    2035,    2028,    2029,    2030,    6494,    6496,    6495,    6471,    7735,    7736,    7737,    7701,    7781,    7793,    7794,    7780
    1646,    2054,    2055,    2062,    2061,    2027,    2028,    2035,    2034,    6497,    6494,    6484,    6498,    7740,    7735,    7719,    7741,    7795,    7793,    7781,    7787
    1647,    2053,    2054,    2061,    2060,    2026,    2027,    2034,    2033,    6499,    6498,    6490,    6500,    7743,    7741,    7730,    7744,    7796,    7795,    7787,    7791
    1648,    2052,    2053,    2060,    2051,    2025,    2026,    2033,    2024,    6501,    6500,    6492,    6502,    7746,    7744,    7732,    7747,    7797,    7796,    7791,    7792
    1649,    2043,    2044,    2048,    2058,    2016,    2017,    2021,    2031,    6503,    6505,    6488,    6504,    7749,    7750,    7726,    7751,    7798,    7799,    7790,    7786
    1650,    2042,    2043,    2058,    2059,    2015,    2016,    2031,    2032,    6506,    6504,    6482,    6464,    7754,    7751,    7716,    7684,    7775,    7798,    7786,    7776
    1651,    2045,    2046,    2057,    2056,    2018,    2019,    2030,    2029,    6507,    6469,    6495,    6508,    7755,    7697,    7737,    7756,    7800,    7779,    7780,    7794
    1652,    1707,    1706,    2045,    2056,    1722,    1712,    2018,    2029,    6455,    6510,    6508,    6509,    6685,    7758,    7756,    7759,    6686,    6665,    7800,    7794
    1653,    1708,    1707,    2056,    2055,    1732,    1722,    2029,    2028,    6456,    6509,    6496,    6511,    6706,    7759,    7736,    7760,    6707,    6686,    7794,    7793
    1654,    1709,    1708,    2055,    2054,    1742,    1732,    2028,    2027,    6457,    6511,    6497,    6512,    6727,    7760,    7740,    7761,    6728,    6707,    7793,    7795
    1655,    1710,    1709,    2054,    2053,    1752,    1742,    2027,    2026,    6458,    6512,    6499,    6513,    6748,    7761,    7743,    7762,    6749,    6728,    7795,    7796
    1656,    1711,    1710,    2053,    2052,    1762,    1752,    2026,    2025,    6459,    6513,    6501,    6514,    6769,    7762,    7746,    7763,    6770,    6749,    7796,    7797
    1657,    1569,    1563,    1711,    2052,    1639,    1570,    1762,    2025,    6293,    6460,    6514,    6515,    6447,    6790,    7763,    7764,    6437,    6294,    6770,    7797
    1658,    1568,    1569,    2052,    2051,    1629,    1639,    2025,    2024,    6292,    6515,    6502,    6516,    6435,    7764,    7747,    7765,    6416,    6437,    7797,    7792
    1659,    1567,    1568,    2051,    2050,    1619,    1629,    2024,    2023,    6291,    6516,    6493,    6517,    6414,    7765,    7733,    7766,    6395,    6416,    7792,    7789
    1660,    1566,    1567,    2050,    2049,    1609,    1619,    2023,    2022,    6290,    6517,    6487,    6518,    6393,    7766,    7722,    7767,    6374,    6395,    7789,    7788
    1661,    1565,    1566,    2049,    2048,    1599,    1609,    2022,    2021,    6289,    6518,    6489,    6519,    6372,    7767,    7727,    7768,    6353,    6374,    7788,    7790
    1662,    1564,    1565,    2048,    2044,    1589,    1599,    2021,    2017,    6288,    6519,    6505,    6520,    6351,    7768,    7750,    7769,    6332,    6353,    7790,    7799
    1663,    1654,    1651,    1695,    2047,    1694,    1655,    1696,    2020,    6453,    6449,    6465,    6476,    6623,    6647,    7691,    7709,    6613,    6536,    6627,    7778
    1664,    1652,    1653,    2046,    2045,    1674,    1684,    2019,    2018,    6451,    6477,    6507,    6521,    6590,    7708,    7755,    7770,    6571,    6592,    7779,    7800
    1665,    1640,    1652,    2045,    1706,    1650,    1674,    2018,    1712,    6450,    6521,    6510,    6454,    6569,    7770,    7758,    6664,    6535,    6571,    7800,    6665
    1666,     299,     296,    1564,    2044,     320,     310,    1589,    2017,    3152,    6287,    6520,    6522,    3180,    6330,    7769,    7771,    3179,    3168,    6332,    7799
    1667,     298,     299,    2044,    2043,     321,     320,    2017,    2016,    3151,    6522,    6503,    6523,    3182,    7771,    7749,    7772,    3181,    3179,    7799,    7798
    1668,     297,     298,    2043,    2042,     322,     321,    2016,    2015,    3150,    6523,    6506,    6524,    3184,    7772,    7754,    7773,    3183,    3181,    7798,    7775
    1669,     295,     297,    2042,    1695,     309,     322,    2015,    1696,    3149,    6524,    6467,    6448,    3185,    7773,    7692,    6626,    3163,    3183,    7775,    6627
    1670,    1332,    1306,    1321,    1331,    1454,    1428,    1444,    1452,    6863,    6837,    6859,    6861,    8064,    8065,    8066,    8067,    8060,    8061,    8062,    8063
    1671,    1310,    1305,    1306,    1332,    1433,    1394,    1428,    1454,    6811,    6801,    6863,    6862,    8069,    8070,    8064,    8071,    8068,    7919,    8061,    8060
    1672,    1330,    1310,    1332,    1320,    1432,    1433,    1454,    1443,    6858,    6862,    6860,    6833,    8074,    8071,    8075,    8076,    8072,    8068,    8060,    8073
    1673,    1320,    1332,    1331,    1325,    1443,    1454,    1452,    1448,    6860,    6861,    6853,    6845,    8075,    8067,    8078,    8079,    8073,    8060,    8063,    8077
    1674,    1321,    1328,    1329,    1331,    1444,    1453,    1450,    1452,    6856,    6857,    6854,    6859,    8082,    8083,    8084,    8066,    8062,    8080,    8081,    8063
    1675,    1310,    1330,    1303,    1302,    1433,    1432,    1385,    1381,    6858,    6809,    6548,    6812,    8074,    8085,    7894,    8086,    8068,    8072,    7895,    7886
    1676,    1327,    1326,    1329,    1328,    1451,    1449,    1450,    1453,    6852,    6849,    6857,    6855,    8089,    8090,    8083,    8091,    8087,    8088,    8081,    8080
    1677,    1322,    1327,    1328,    1321,    1445,    1451,    1453,    1444,    6851,    6855,    6856,    6836,    8093,    8091,    8082,    8094,    8092,    8087,    8080,    8062
    1678,    1329,    1324,    1325,    1331,    1450,    1447,    1448,    1452,    6848,    6844,    6853,    6854,    8096,    8097,    8078,    8084,    8081,    8095,    8077,    8063
    1679,    1327,    1312,    1313,    1326,    1451,    1435,    1436,    1449,    6850,    6818,    6847,    6852,    8100,    8101,    8102,    8089,    8087,    8098,    8099,    8088
    1680,    1322,    1311,    1312,    1327,    1445,    1434,    1435,    1451,    6838,    6816,    6850,    6851,    8104,    8105,    8100,    8093,    8092,    8103,    8098,    8087
    1681,    1324,    1329,    1326,    1323,    1447,    1450,    1449,    1446,    6848,    6849,    6846,    6842,    8096,    8090,    8107,    8108,    8095,    8081,    8088,    8106
    1682,    1314,    1323,    1326,    1313,    1437,    1446,    1449,    1436,    6840,    6846,    6847,    6820,    8110,    8107,    8102,    8111,    8109,    8106,    8088,    8099
    1683,    1325,    1318,    1319,    1320,    1448,    1441,    1442,    1443,    6843,    6831,    6834,    6845,    8114,    8115,    8116,    8079,    8077,    8112,    8113,    8073
    1684,    1317,    1318,    1325,    1324,    1440,    1441,    1448,    1447,    6829,    6843,    6844,    6841,    8118,    8114,    8097,    8119,    8117,    8112,    8077,    8095
    1685,    1316,    1317,    1324,    1323,    1439,    1440,    1447,    1446,    6827,    6841,    6842,    6839,    8121,    8119,    8108,    8122,    8120,    8117,    8095,    8106
    1686,    1315,    1316,    1323,    1314,    1438,    1439,    1446,    1437,    6825,    6839,    6840,    6822,    8124,    8122,    8110,    8125,    8123,    8120,    8106,    8109
    1687,    1307,    1308,    1311,    1322,    1429,    1430,    1434,    1445,    6805,    6814,    6838,    6835,    8128,    8129,    8104,    8130,    8126,    8127,    8103,    8092
    1688,    1306,    1307,    1322,    1321,    1428,    1429,    1445,    1444,    6803,    6835,    6836,    6837,    8131,    8130,    8094,    8065,    8061,    8126,    8092,    8062
    1689,    1309,    1330,    1320,    1319,    1431,    1432,    1443,    1442,    6810,    6833,    6834,    6832,    8133,    8076,    8116,    8134,    8132,    8072,    8073,    8113
    1690,    1296,    1295,    1309,    1319,    1408,    1404,    1431,    1442,    6658,    6808,    6832,    6830,    7947,    8135,    8134,    8136,    7948,    7939,    8132,    8113
    1691,    1297,    1296,    1319,    1318,    1412,    1408,    1442,    1441,    6659,    6830,    6831,    6828,    7956,    8136,    8115,    8137,    7957,    7948,    8113,    8112
    1692,    1298,    1297,    1318,    1317,    1416,    1412,    1441,    1440,    6660,    6828,    6829,    6826,    7965,    8137,    8118,    8138,    7966,    7957,    8112,    8117
    1693,    1299,    1298,    1317,    1316,    1420,    1416,    1440,    1439,    6661,    6826,    6827,    6824,    7974,    8138,    8121,    8139,    7975,    7966,    8117,    8120
    1694,    1300,    1299,    1316,    1315,    1424,    1420,    1439,    1438,    6662,    6824,    6825,    6823,    7983,    8139,    8124,    8140,    7984,    7975,    8120,    8123
    1695,    1288,    1287,    1300,    1315,    1367,    1334,    1424,    1438,    6305,    6663,    6823,    6821,    7870,    7992,    8140,    8141,    7866,    7801,    7984,    8123
    1696,    1289,    1288,    1315,    1314,    1363,    1367,    1438,    1437,    6306,    6821,    6822,    6819,    7864,    8141,    8125,    8142,    7857,    7866,    8123,    8109
    1697,    1290,    1289,    1314,    1313,    1359,    1363,    1437,    1436,    6307,    6819,    6820,    6817,    7855,    8142,    8111,    8143,    7848,    7857,    8109,    8099
    1698,    1291,    1290,    1313,    1312,    1355,    1359,    1436,    1435,    6308,    6817,    6818,    6815,    7846,    8143,    8101,    8144,    7839,    7848,    8099,    8098
    1699,    1292,    1291,    1312,    1311,    1351,    1355,    1435,    1434,    6309,    6815,    6816,    6813,    7837,    8144,    8105,    8145,    7830,    7839,    8098,    8103
    1700,    1293,    1292,    1311,    1308,    1347,    1351,    1434,    1430,    6310,    6813,    6814,    6806,    7828,    8145,    8129,    8146,    7821,    7830,    8103,    8127
    1701,    1302,    1301,    1305,    1310,    1381,    1369,    1394,    1433,    6547,    6624,    6811,    6812,    7885,    7927,    8069,    8086,    7886,    7871,    7919,    8068
    1702,    1304,    1303,    1330,    1309,    1389,    1385,    1432,    1431,    6549,    6809,    6810,    6807,    7903,    8085,    8133,    8147,    7904,    7895,    8072,    8132
    1703,    1294,    1304,    1309,    1295,    1380,    1389,    1431,    1404,    6550,    6807,    6808,    6657,    7912,    8147,    8135,    7938,    7884,    7904,    8132,    7939
    1704,       3,       1,    1293,    1308,      63,      59,    1347,    1430,    3164,    6311,    6806,    6804,    4711,    7819,    8146,    8148,    4710,    4705,    7821,    8127
    1705,       4,       3,    1308,    1307,      64,      63,    1430,    1429,    3165,    6804,    6805,    6802,    4713,    8148,    8128,    8149,    4712,    4710,    8127,    8126
    1706,       5,       4,    1307,    1306,      65,      64,    1429,    1428,    3166,    6802,    6803,    6800,    4715,    8149,    8131,    8150,    4714,    4712,    8126,    8061
    1707,       2,       5,    1306,    1305,      54,      65,    1428,    1394,    3167,    6800,    6801,    6625,    4716,    8150,    8070,    7918,    4700,    4714,    8061,    7919
    1708,    1454,    1428,    1444,    1452,    1481,    1455,    1471,    1479,    8064,    8065,    8066,    8067,    8155,    8156,    8157,    8158,    8151,    8152,    8153,    8154
    1709,    1433,    1394,    1428,    1454,    1460,    1395,    1455,    1481,    8069,    8070,    8064,    8071,    8160,    8161,    8155,    8162,    8159,    7921,    8152,    8151
    1710,    1432,    1433,    1454,    1443,    1459,    1460,    1481,    1470,    8074,    8071,    8075,    8076,    8165,    8162,    8166,    8167,    8163,    8159,    8151,    8164
    1711,    1443,    1454,    1452,    1448,    1470,    1481,    1479,    1475,    8075,    8067,    8078,    8079,    8166,    8158,    8169,    8170,    8164,    8151,    8154,    8168
    1712,    1444,    1453,    1450,    1452,    1471,    1480,    1477,    1479,    8082,    8083,    8084,    8066,    8173,    8174,    8175,    8157,    8153,    8171,    8172,    8154
    1713,    1433,    1432,    1385,    1381,    1460,    1459,    1386,    1382,    8074,    8085,    7894,    8086,    8165,    8176,    7896,    8177,    8159,    8163,    7897,    7888
    1714,    1451,    1449,    1450,    1453,    1478,    1476,    1477,    1480,    8089,    8090,    8083,    8091,    8180,    8181,    8174,    8182,    8178,    8179,    8172,    8171
    1715,    1445,    1451,    1453,    1444,    1472,    1478,    1480,    1471,    8093,    8091,    8082,    8094,    8184,    8182,    8173,    8185,    8183,    8178,    8171,    8153
    1716,    1450,    1447,    1448,    1452,    1477,    1474,    1475,    1479,    8096,    8097,    8078,    8084,    8187,    8188,    8169,    8175,    8172,    8186,    8168,    8154
    1717,    1451,    1435,    1436,    1449,    1478,    1462,    1463,    1476,    8100,    8101,    8102,    8089,    8191,    8192,    8193,    8180,    8178,    8189,    8190,    8179
    1718,    1445,    1434,    1435,    1451,    1472,    1461,    1462,    1478,    8104,    8105,    8100,    8093,    8195,    8196,    8191,    8184,    8183,    8194,    8189,    8178
    1719,    1447,    1450,    1449,    1446,    1474,    1477,    1476,    1473,    8096,    8090,    8107,    8108,    8187,    8181,    8198,    8199,    8186,    8172,    8179,    8197
    1720,    1437,    1446,    1449,    1436,    1464,    1473,    1476,    1463,    8110,    8107,    8102,    8111,    8201,    8198,    8193,    8202,    8200,    8197,    8179,    8190
    1721,    1448,    1441,    1442,    1443,    1475,    1468,    1469,    1470,    8114,    8115,    8116,    8079,    8205,    8206,    8207,    8170,    8168,    8203,    8204,    8164
    1722,    1440,    1441,    1448,    1447,    1467,    1468,    1475,    1474,    8118,    8114,    8097,    8119,    8209,    8205,    8188,    8210,    8208,    8203,    8168,    8186
    1723,    1439,    1440,    1447,    1446,    1466,    1467,    1474,    1473,    8121,    8119,    8108,    8122,    8212,    8210,    8199,    8213,    8211,    8208,    8186,    8197
    1724,    1438,    1439,    1446,    1437,    1465,    1466,    1473,    1464,    8124,    8122,    8110,    8125,    8215,    8213,    8201,    8216,    8214,    8211,    8197,    8200
    1725,    1429,    1430,    1434,    1445,    1456,    1457,    1461,    1472,    8128,    8129,    8104,    8130,    8219,    8220,    8195,    8221,    8217,    8218,    8194,    8183
    1726,    1428,    1429,    1445,    1444,    1455,    1456,    1472,    1471,    8131,    8130,    8094,    8065,    8222,    8221,    8185,    8156,    8152,    8217,    8183,    8153
    1727,    1431,    1432,    1443,    1442,    1458,    1459,    1470,    1469,    8133,    8076,    8116,    8134,    8224,    8167,    8207,    8225,    8223,    8163,    8164,    8204
    1728,    1408,    1404,    1431,    1442,    1409,    1405,    1458,    1469,    7947,    8135,    8134,    8136,    7949,    8226,    8225,    8227,    7950,    7941,    8223,    8204
    1729,    1412,    1408,    1442,    1441,    1413,    1409,    1469,    1468,    7956,    8136,    8115,    8137,    7958,    8227,    8206,    8228,    7959,    7950,    8204,    8203
    1730,    1416,    1412,    1441,    1440,    1417,    1413,    1468,    1467,    7965,    8137,    8118,    8138,    7967,    8228,    8209,    8229,    7968,    7959,    8203,    8208
    1731,    1420,    1416,    1440,    1439,    1421,    1417,    1467,    1466,    7974,    8138,    8121,    8139,    7976,    8229,    8212,    8230,    7977,    7968,    8208,    8211
    1732,    1424,    1420,    1439,    1438,    1425,    1421,    1466,    1465,    7983,    8139,    8124,    8140,    7985,    8230,    8215,    8231,    7986,    7977,    8211,    8214
    1733,    1367,    1334,    1424,    1438,    1366,    1335,    1425,    1465,    7870,    7992,    8140,    8141,    7869,    7993,    8231,    8232,    7865,    7802,    7986,    8214
    1734,    1363,    1367,    1438,    1437,    1362,    1366,    1465,    1464,    7864,    8141,    8125,    8142,    7862,    8232,    8216,    8233,    7856,    7865,    8214,    8200
    1735,    1359,    1363,    1437,    1436,    1358,    1362,    1464,    1463,    7855,    8142,    8111,    8143,    7853,    8233,    8202,    8234,    7847,    7856,    8200,    8190
    1736,    1355,    1359,    1436,    1435,    1354,    1358,    1463,    1462,    7846,    8143,    8101,    8144,    7844,    8234,    8192,    8235,    7838,    7847,    8190,    8189
    1737,    1351,    1355,    1435,    1434,    1350,    1354,    1462,    1461,    7837,    8144,    8105,    8145,    7835,    8235,    8196,    8236,    7829,    7838,    8189,    8194
    1738,    1347,    1351,    1434,    1430,    1346,    1350,    1461,    1457,    7828,    8145,    8129,    8146,    7826,    8236,    8220,    8237,    7820,    7829,    8194,    8218
    1739,    1381,    1369,    1394,    1433,    1382,    1370,    1395,    1460,    7885,    7927,    8069,    8086,    7887,    7928,    8160,    8177,    7888,    7872,    7921,    8159
    1740,    1389,    1385,    1432,    1431,    1390,    1386,    1459,    1458,    7903,    8085,    8133,    8147,    7905,    8176,    8224,    8238,    7906,    7897,    8163,    8223
    1741,    1380,    1389,    1431,    1404,    1379,    1390,    1458,    1405,    7912,    8147,    8135,    7938,    7913,    8238,    8226,    7940,    7883,    7906,    8223,    7941
    1742,      63,      59,    1347,    1430,      66,      60,    1346,    1457,    4711,    7819,    8146,    8148,    4718,    7817,    8237,    8239,    4717,    4706,    7820,    8218
    1743,      64,      63,    1430,    1429,      67,      66,    1457,    1456,    4713,    8148,    8128,    8149,    4720,    8239,    8219,    8240,    4719,    4717,    8218,    8217
    1744,      65,      64,    1429,    1428,      68,      67,    1456,    1455,    4715,    8149,    8131,    8150,    4722,    8240,    8222,    8241,    4721,    4719,    8217,    8152
    1745,      54,      65,    1428,    1394,      53,      68,    1455,    1395,    4716,    8150,    8070,    7918,    4723,    8241,    8161,    7920,    4699,    4721,    8152,    7921
    1746,    1481,    1455,    1471,    1479,    1508,    1482,    1498,    1506,    8155,    8156,    8157,    8158,    8246,    8247,    8248,    8249,    8242,    8243,    8244,    8245
    1747,    1460,    1395,    1455,    1481,    1487,    1396,    1482,    1508,    8160,    8161,    8155,    8162,    8251,    8252,    8246,    8253,    8250,    7923,    8243,    8242
    1748,    1459,    1460,    1481,    1470,    1486,    1487,    1508,    1497,    8165,    8162,    8166,    8167,    8256,    8253,    8257,    8258,    8254,    8250,    8242,    8255
    1749,    1470,    1481,    1479,    1475,    1497,    1508,    1506,    1502,    8166,    8158,    8169,    8170,    8257,    8249,    8260,    8261,    8255,    8242,    8245,    8259
    1750,    1471,    1480,    1477,    1479,    1498,    1507,    1504,    1506,    8173,    8174,    8175,    8157,    8264,    8265,    8266,    8248,    8244,    8262,    8263,    8245
    1751,    1460,    1459,    1386,    1382,    1487,    1486,    1387,    1383,    8165,    8176,    7896,    8177,    8256,    8267,    7898,    8268,    8250,    8254,    7899,    7890
    1752,    1478,    1476,    1477,    1480,    1505,    1503,    1504,    1507,    8180,    8181,    8174,    8182,    8271,    8272,    8265,    8273,    8269,    8270,    8263,    8262
    1753,    1472,    1478,    1480,    1471,    1499,    1505,    1507,    1498,    8184,    8182,    8173,    8185,    8275,    8273,    8264,    8276,    8274,    8269,    8262,    8244
    1754,    1477,    1474,    1475,    1479,    1504,    1501,    1502,    1506,    8187,    8188,    8169,    8175,    8278,    8279,    8260,    8266,    8263,    8277,    8259,    8245
    1755,    1478,    1462,    1463,    1476,    1505,    1489,    1490,    1503,    8191,    8192,    8193,    8180,    8282,    8283,    8284,    8271,    8269,    8280,    8281,    8270
    1756,    1472,    1461,    1462,    1478,    1499,    1488,    1489,    1505,    8195,    8196,    8191,    8184,    8286,    8287,    8282,    8275,    8274,    8285,    8280,    8269
    1757,    1474,    1477,    1476,    1473,    1501,    1504,    1503,    1500,    8187,    8181,    8198,    8199,    8278,    8272,    8289,    8290,    8277,    8263,    8270,    8288
    1758,    1464,    1473,    1476,    1463,    1491,    1500,    1503,    1490,    8201,    8198,    8193,    8202,    8292,    8289,    8284,    8293,    8291,    8288,    8270,    8281
    1759,    1475,    1468,    1469,    1470,    1502,    1495,    1496,    1497,    8205,    8206,    8207,    8170,    8296,    8297,    8298,    8261,    8259,    8294,    8295,    8255
    1760,    1467,    1468,    1475,    1474,    1494,    1495,    1502,    1501,    8209,    8205,    8188,    8210,    8300,    8296,    8279,    8301,    8299,    8294,    8259,    8277
    1761,    1466,    1467,    1474,    1473,    1493,    1494,    1501,    1500,    8212,    8210,    8199,    8213,    8303,    8301,    8290,    8304,    8302,    8299,    8277,    8288
    1762,    1465,    1466,    1473,    1464,    1492,    1493,    1500,    1491,    8215,    8213,    8201,    8216,    8306,    8304,    8292,    8307,    8305,    8302,    8288,    8291
    1763,    1456,    1457,    1461,    1472,    1483,    1484,    1488,    1499,    8219,    8220,    8195,    8221,    8310,    8311,    8286,    8312,    8308,    8309,    8285,    8274
    1764,    1455,    1456,    1472,    1471,    1482,    1483,    1499,    1498,    8222,    8221,    8185,    8156,    8313,    8312,    8276,    8247,    8243,    8308,    8274,    8244
    1765,    1458,    1459,    1470,    1469,    1485,    1486,    1497,    1496,    8224,    8167,    8207,    8225,    8315,    8258,    8298,    8316,    8314,    8254,    8255,    8295
    1766,    1409,    1405,    1458,    1469,    1410,    1406,    1485,    1496,    7949,    8226,    8225,    8227,    7951,    8317,    8316,    8318,    7952,    7943,    8314,    8295
    1767,    1413,    1409,    1469,    1468,    1414,    1410,    1496,    1495,    7958,    8227,    8206,    8228,    7960,    8318,    8297,    8319,    7961,    7952,    8295,    8294
    1768,    1417,    1413,    1468,    1467,    1418,    1414,    1495,    1494,    7967,    8228,    8209,    8229,    7969,    8319,    8300,    8320,    7970,    7961,    8294,    8299
    1769,    1421,    1417,    1467,    1466,    1422,    1418,    1494,    1493,    7976,    8229,    8212,    8230,    7978,    8320,    8303,    8321,    7979,    7970,    8299,    8302
    1770,    1425,    1421,    1466,    1465,    1426,    1422,    1493,    1492,    7985,    8230,    8215,    8231,    7987,    8321,    8306,    8322,    7988,    7979,    8302,    8305
    1771,    1366,    1335,    1425,    1465,    1365,    1336,    1426,    1492,    7869,    7993,    8231,    8232,    7868,    7994,    8322,    8323,    7863,    7803,    7988,    8305
    1772,    1362,    1366,    1465,    1464,    1361,    1365,    1492,    1491,    7862,    8232,    8216,    8233,    7860,    8323,    8307,    8324,    7854,    7863,    8305,    8291
    1773,    1358,    1362,    1464,    1463,    1357,    1361,    1491,    1490,    7853,    8233,    8202,    8234,    7851,    8324,    8293,    8325,    7845,    7854,    8291,    8281
    1774,    1354,    1358,    1463,    1462,    1353,    1357,    1490,    1489,    7844,    8234,    8192,    8235,    7842,    8325,    8283,    8326,    7836,    7845,    8281,    8280
    1775,    1350,    1354,    1462,    1461,    1349,    1353,    1489,    1488,    7835,    8235,    8196,    8236,    7833,    8326,    8287,    8327,    7827,    7836,    8280,    8285
    1776,    1346,    1350,    1461,    1457,    1345,    1349,    1488,    1484,    7826,    8236,    8220,    8237,    7824,    8327,    8311,    8328,    7818,    7827,    8285,    8309
    1777,    1382,    1370,    1395,    1460,    1383,    1371,    1396,    1487,    7887,    7928,    8160,    8177,    7889,    7929,    8251,    8268,    7890,    7873,    7923,    8250
    1778,    1390,    1386,    1459,    1458,    1391,    1387,    1486,    1485,    7905,    8176,    8224,    8238,    7907,    8267,    8315,    8329,    7908,    7899,    8254,    8314
    1779,    1379,    1390,    1458,    1405,    1378,    1391,    1485,    1406,    7913,    8238,    8226,    7940,    7914,    8329,    8317,    7942,    7882,    7908,    8314,    7943
    1780,      66,      60,    1346,    1457,      69,      61,    1345,    1484,    4718,    7817,    8237,    8239,    4725,    7815,    8328,    8330,    4724,    4707,    7818,    8309
    1781,      67,      66,    1457,    1456,      70,      69,    1484,    1483,    4720,    8239,    8219,    8240,    4727,    8330,    8310,    8331,    4726,    4724,    8309,    8308
    1782,      68,      67,    1456,    1455,      71,      70,    1483,    1482,    4722,    8240,    8222,    8241,    4729,    8331,    8313,    8332,    4728,    4726,    8308,    8243
    1783,      53,      68,    1455,    1395,      52,      71,    1482,    1396,    4723,    8241,    8161,    7920,    4730,    8332,    8252,    7922,    4698,    4728,    8243,    7923
    1784,    1508,    1482,    1498,    1506,    1535,    1509,    1525,    1533,    8246,    8247,    8248,    8249,    8337,    8338,    8339,    8340,    8333,    8334,    8335,    8336
    1785,    1487,    1396,    1482,    1508,    1514,    1397,    1509,    1535,    8251,    8252,    8246,    8253,    8342,    8343,    8337,    8344,    8341,    7925,    8334,    8333
    1786,    1486,    1487,    1508,    1497,    1513,    1514,    1535,    1524,    8256,    8253,    8257,    8258,    8347,    8344,    8348,    8349,    8345,    8341,    8333,    8346
    1787,    1497,    1508,    1506,    1502,    1524,    1535,    1533,    1529,    8257,    8249,    8260,    8261,    8348,    8340,    8351,    8352,    8346,    8333,    8336,    8350
    1788,    1498,    1507,    1504,    1506,    1525,    1534,    1531,    1533,    8264,    8265,    8266,    8248,    8355,    8356,    8357,    8339,    8335,    8353,    8354,    8336
    1789,    1487,    1486,    1387,    1383,    1514,    1513,    1388,    1384,    8256,    8267,    7898,    8268,    8347,    8358,    7900,    8359,    8341,    8345,    7901,    7892
    1790,    1505,    1503,    1504,    1507,    1532,    1530,    1531,    1534,    8271,    8272,    8265,    8273,    8362,    8363,    8356,    8364,    8360,    8361,    8354,    8353
    1791,    1499,    1505,    1507,    1498,    1526,    1532,    1534,    1525,    8275,    8273,    8264,    8276,    8366,    8364,    8355,    8367,    8365,    8360,    8353,    8335
    1792,    1504,    1501,    1502,    1506,    1531,    1528,    1529,    1533,    8278,    8279,    8260,    8266,    8369,    8370,    8351,    8357,    8354,    8368,    8350,    8336
    1793,    1505,    1489,    1490,    1503,    1532,    1516,    1517,    1530,    8282,    8283,    8284,    8271,    8373,    8374,    8375,    8362,    8360,    8371,    8372,    8361
    1794,    1499,    1488,    1489,    1505,    1526,    1515,    1516,    1532,    8286,    8287,    8282,    8275,    8377,    8378,    8373,    8366,    8365,    8376,    8371,    8360
    1795,    1501,    1504,    1503,    1500,    1528,    1531,    1530,    1527,    8278,    8272,    8289,    8290,    8369,    8363,    8380,    8381,    8368,    8354,    8361,    8379
    1796,    1491,    1500,    1503,    1490,    1518,    1527,    1530,    1517,    8292,    8289,    8284,    8293,    8383,    8380,    8375,    8384,    8382,    8379,    8361,    8372
    1797,    1502,    1495,    1496,    1497,    1529,    1522,    1523,    1524,    8296,    8297,    8298,    8261,    8387,    8388,    8389,    8352,    8350,    8385,    8386,    8346
    1798,    1494,    1495,    1502,    1501,    1521,    1522,    1529,    1528,    8300,    8296,    8279,    8301,    8391,    8387,    8370,    8392,    8390,    8385,    8350,    8368
    1799,    1493,    1494,    1501,    1500,    1520,    1521,    1528,    1527,    8303,    8301,    8290,    8304,    8394,    8392,    8381,    8395,    8393,    8390,    8368,    8379
    1800,    1492,    1493,    1500,    1491,    1519,    1520,    1527,    1518,    8306,    8304,    8292,    8307,    8397,    8395,    8383,    8398,    8396,    8393,    8379,    8382
    1801,    1483,    1484,    1488,    1499,    1510,    1511,    1515,    1526,    8310,    8311,    8286,    8312,    8401,    8402,    8377,    8403,    8399,    8400,    8376,    8365
    1802,    1482,    1483,    1499,    1498,    1509,    1510,    1526,    1525,    8313,    8312,    8276,    8247,    8404,    8403,    8367,    8338,    8334,    8399,    8365,    8335
    1803,    1485,    1486,    1497,    1496,    1512,    1513,    1524,    1523,    8315,    8258,    8298,    8316,    8406,    8349,    8389,    8407,    8405,    8345,    8346,    8386
    1804,    1410,    1406,    1485,    1496,    1411,    1407,    1512,    1523,    7951,    8317,    8316,    8318,    7953,    8408,    8407,    8409,    7954,    7945,    8405,    8386
    1805,    1414,    1410,    1496,    1495,    1415,    1411,    1523,    1522,    7960,    8318,    8297,    8319,    7962,    8409,    8388,    8410,    7963,    7954,    8386,    8385
    1806,    1418,    1414,    1495,    1494,    1419,    1415,    1522,    1521,    7969,    8319,    8300,    8320,    7971,    8410,    8391,    8411,    7972,    7963,    8385,    8390
    1807,    1422,    1418,    1494,    1493,    1423,    1419,    1521,    1520,    7978,    8320,    8303,    8321,    7980,    8411,    8394,    8412,    7981,    7972,    8390,    8393
    1808,    1426,    1422,    1493,    1492,    1427,    1423,    1520,    1519,    7987,    8321,    8306,    8322,    7989,    8412,    8397,    8413,    7990,    7981,    8393,    8396
    1809,    1365,    1336,    1426,    1492,    1364,    1337,    1427,    1519,    7868,    7994,    8322,    8323,    7867,    7995,    8413,    8414,    7861,    7804,    7990,    8396
    1810,    1361,    1365,    1492,    1491,    1360,    1364,    1519,    1518,    7860,    8323,    8307,    8324,    7858,    8414,    8398,    8415,    7852,    7861,    8396,    8382
    1811,    1357,    1361,    1491,    1490,    1356,    1360,    1518,    1517,    7851,    8324,    8293,    8325,    7849,    8415,    8384,    8416,    7843,    7852,    8382,    8372
    1812,    1353,    1357,    1490,    1489,    1352,    1356,    1517,    1516,    7842,    8325,    8283,    8326,    7840,    8416,    8374,    8417,    7834,    7843,    8372,    8371
    1813,    1349,    1353,    1489,    1488,    1348,    1352,    1516,    1515,    7833,    8326,    8287,    8327,    7831,    8417,    8378,    8418,    7825,    7834,    8371,    8376
    1814,    1345,    1349,    1488,    1484,    1344,    1348,    1515,    1511,    7824,    8327,    8311,    8328,    7822,    8418,    8402,    8419,    7816,    7825,    8376,    8400
    1815,    1383,    1371,    1396,    1487,    1384,    1372,    1397,    1514,    7889,    7929,    8251,    8268,    7891,    7930,    8342,    8359,    7892,    7874,    7925,    8341
    1816,    1391,    1387,    1486,    1485,    1392,    1388,    1513,    1512,    7907,    8267,    8315,    8329,    7909,    8358,    8406,    8420,    7910,    7901,    8345,    8405
    1817,    1378,    1391,    1485,    1406,    1377,    1392,    1512,    1407,    7914,    8329,    8317,    7942,    7915,    8420,    8408,    7944,    7881,    7910,    8405,    7945
    1818,      69,      61,    1345,    1484,      72,      62,    1344,    1511,    4725,    7815,    8328,    8330,    4732,    7813,    8419,    8421,    4731,    4708,    7816,    8400
    1819,      70,      69,    1484,    1483,      73,      72,    1511,    1510,    4727,    8330,    8310,    8331,    4734,    8421,    8401,    8422,    4733,    4731,    8400,    8399
    1820,      71,      70,    1483,    1482,      74,      73,    1510,    1509,    4729,    8331,    8313,    8332,    4736,    8422,    8404,    8423,    4735,    4733,    8399,    8334
    1821,      52,      71,    1482,    1396,      51,      74,    1509,    1397,    4730,    8332,    8252,    7922,    4737,    8423,    8343,    7924,    4697,    4735,    8334,    7925
    1822,    1535,    1509,    1525,    1533,    1562,    1536,    1552,    1560,    8337,    8338,    8339,    8340,    7996,    7997,    7998,    7999,    8424,    8425,    8426,    8427
    1823,    1514,    1397,    1509,    1535,    1541,    1393,    1536,    1562,    8342,    8343,    8337,    8344,    8000,    8001,    7996,    8002,    8428,    7926,    8425,    8424
    1824,    1513,    1514,    1535,    1524,    1540,    1541,    1562,    1551,    8347,    8344,    8348,    8349,    8003,    8002,    8004,    8005,    8429,    8428,    8424,    8430
    1825,    1524,    1535,    1533,    1529,    1551,    1562,    1560,    1556,    8348,    8340,    8351,    8352,    8004,    7999,    8006,    8007,    8430,    8424,    8427,    8431
    1826,    1525,    1534,    1531,    1533,    1552,    1561,    1558,    1560,    8355,    8356,    8357,    8339,    8008,    8009,    8010,    7998,    8426,    8432,    8433,    8427
    1827,    1514,    1513,    1388,    1384,    1541,    1540,    1375,    1374,    8347,    8358,    7900,    8359,    8003,    8011,    7877,    8012,    8428,    8429,    7902,    7893
    1828,    1532,    1530,    1531,    1534,    1559,    1557,    1558,    1561,    8362,    8363,    8356,    8364,    8013,    8014,    8009,    8015,    8434,    8435,    8433,    8432
    1829,    1526,    1532,    1534,    1525,    1553,    1559,    1561,    1552,    8366,    8364,    8355,    8367,    8016,    8015,    8008,    8017,    8436,    8434,    8432,    8426
    1830,    1531,    1528,    1529,    1533,    1558,    1555,    1556,    1560,    8369,    8370,    8351,    8357,    8018,    8019,    8006,    8010,    8433,    8437,    8431,    8427
    1831,    1532,    1516,    1517,    1530,    1559,    1543,    1544,    1557,    8373,    8374,    8375,    8362,    8020,    8021,    8022,    8013,    8434,    8438,    8439,    8435
    1832,    1526,    1515,    1516,    1532,    1553,    1542,    1543,    1559,    8377,    8378,    8373,    8366,    8023,    8024,    8020,    8016,    8436,    8440,    8438,    8434
    1833,    1528,    1531,    1530,    1527,    1555,    1558,    1557,    1554,    8369,    8363,    8380,    8381,    8018,    8014,    8025,    8026,    8437,    8433,    8435,    8441
    1834,    1518,    1527,    1530,    1517,    1545,    1554,    1557,    1544,    8383,    8380,    8375,    8384,    8027,    8025,    8022,    8028,    8442,    8441,    8435,    8439
    1835,    1529,    1522,    1523,    1524,    1556,    1549,    1550,    1551,    8387,    8388,    8389,    8352,    8029,    8030,    8031,    8007,    8431,    8443,    8444,    8430
    1836,    1521,    1522,    1529,    1528,    1548,    1549,    1556,    1555,    8391,    8387,    8370,    8392,    8032,    8029,    8019,    8033,    8445,    8443,    8431,    8437
    1837,    1520,    1521,    1528,    1527,    1547,    1548,    1555,    1554,    8394,    8392,    8381,    8395,    8034,    8033,    8026,    8035,    8446,    8445,    8437,    8441
    1838,    1519,    1520,    1527,    1518,    1546,    1547,    1554,    1545,    8397,    8395,    8383,    8398,    8036,    8035,    8027,    8037,    8447,    8446,    8441,    8442
    1839,    1510,    1511,    1515,    1526,    1537,    1538,    1542,    1553,    8401,    8402,    8377,    8403,    8038,    8039,    8023,    8040,    8448,    8449,    8440,    8436
    1840,    1509,    1510,    1526,    1525,    1536,    1537,    1553,    1552,    8404,    8403,    8367,    8338,    8041,    8040,    8017,    7997,    8425,    8448,    8436,    8426
    1841,    1512,    1513,    1524,    1523,    1539,    1540,    1551,    1550,    8406,    8349,    8389,    8407,    8042,    8005,    8031,    8043,    8450,    8429,    8430,    8444
    1842,    1411,    1407,    1512,    1523,    1399,    1398,    1539,    1550,    7953,    8408,    8407,    8409,    7932,    8044,    8043,    8045,    7955,    7946,    8450,    8444
    1843,    1415,    1411,    1523,    1522,    1400,    1399,    1550,    1549,    7962,    8409,    8388,    8410,    7933,    8045,    8030,    8046,    7964,    7955,    8444,    8443
    1844,    1419,    1415,    1522,    1521,    1401,    1400,    1549,    1548,    7971,    8410,    8391,    8411,    7934,    8046,    8032,    8047,    7973,    7964,    8443,    8445
    1845,    1423,    1419,    1521,    1520,    1402,    1401,    1548,    1547,    7980,    8411,    8394,    8412,    7935,    8047,    8034,    8048,    7982,    7973,    8445,    8446
    1846,    1427,    1423,    1520,    1519,    1403,    1402,    1547,    1546,    7989,    8412,    8397,    8413,    7936,    8048,    8036,    8049,    7991,    7982,    8446,    8447
    1847,    1364,    1337,    1427,    1519,    1338,    1333,    1403,    1546,    7867,    7995,    8413,    8414,    7806,    7937,    8049,    8050,    7859,    7805,    7991,    8447
    1848,    1360,    1364,    1519,    1518,    1339,    1338,    1546,    1545,    7858,    8414,    8398,    8415,    7807,    8050,    8037,    8051,    7850,    7859,    8447,    8442
    1849,    1356,    1360,    1518,    1517,    1340,    1339,    1545,    1544,    7849,    8415,    8384,    8416,    7808,    8051,    8028,    8052,    7841,    7850,    8442,    8439
    1850,    1352,    1356,    1517,    1516,    1341,    1340,    1544,    1543,    7840,    8416,    8374,    8417,    7809,    8052,    8021,    8053,    7832,    7841,    8439,    8438
    1851,    1348,    1352,    1516,    1515,    1342,    1341,    1543,    1542,    7831,    8417,    8378,    8418,    7810,    8053,    8024,    8054,    7823,    7832,    8438,    8440
    1852,    1344,    1348,    1515,    1511,    1343,    1342,    1542,    1538,    7822,    8418,    8402,    8419,    7811,    8054,    8039,    8055,    7814,    7823,    8440,    8449
    1853,    1384,    1372,    1397,    1514,    1374,    1368,    1393,    1541,    7891,    7930,    8342,    8359,    7876,    7916,    8000,    8012,    7893,    7875,    7926,    8428
    1854,    1392,    1388,    1513,    1512,    1376,    1375,    1540,    1539,    7909,    8358,    8406,    8420,    7878,    8011,    8042,    8056,    7911,    7902,    8429,    8450
    1855,    1377,    1392,    1512,    1407,    1373,    1376,    1539,    1398,    7915,    8420,    8408,    7944,    7879,    8056,    8044,    7931,    7880,    7911,    8450,    7946
    1856,      72,      62,    1344,    1511,      56,      55,    1343,    1538,    4732,    7813,    8419,    8421,    4701,    7812,    8055,    8057,    4738,    4709,    7814,    8449
    1857,      73,      72,    1511,    1510,      57,      56,    1538,    1537,    4734,    8421,    8401,    8422,    4702,    8057,    8038,    8058,    4739,    4738,    8449,    8448
    1858,      74,      73,    1510,    1509,      58,      57,    1537,    1536,    4736,    8422,    8404,    8423,    4703,    8058,    8041,    8059,    4740,    4739,    8448,    8425
    1859,      51,      74,    1509,    1397,      50,      58,    1536,    1393,    4737,    8423,    8343,    7924,    4704,    8059,    8001,    7917,    4696,    4740,    8425,    7926
    1860,    2357,    2356,    2377,    2378,    2342,    2341,    2343,    2344,    8492,    8534,    8538,    8539,    8451,    8454,    8457,    8456,    8472,    8470,    8524,    8540
    1861,    1233,    1220,    2357,    2378,    1232,    1210,    2342,    2344,    5387,    8471,    8539,    8541,    5385,    8452,    8456,    8455,    5388,    5371,    8472,    8540
    1862,    2377,    1222,    1233,    2378,    2343,    1221,    1232,    2344,    8522,    5408,    8541,    8538,    8453,    5386,    8455,    8457,    8524,    5374,    5388,    8540
    1863,    2358,    2355,    2376,    2379,    2357,    2356,    2377,    2378,    8493,    8533,    8542,    8543,    8492,    8534,    8538,    8539,    8474,    8469,    8523,    8544
    1864,    1234,    1219,    2358,    2379,    1233,    1220,    2357,    2378,    5389,    8473,    8543,    8545,    5387,    8471,    8539,    8541,    5390,    5370,    8474,    8544
    1865,    2376,    1223,    1234,    2379,    2377,    1222,    1233,    2378,    8520,    5409,    8545,    8542,    8522,    5408,    8541,    8538,    8523,    5375,    5390,    8544
    1866,    2359,    2354,    2375,    2380,    2358,    2355,    2376,    2379,    8494,    8532,    8546,    8547,    8493,    8533,    8542,    8543,    8476,    8468,    8521,    8548
    1867,    1235,    1218,    2359,    2380,    1234,    1219,    2358,    2379,    5391,    8475,    8547,    8549,    5389,    8473,    8543,    8545,    5392,    5369,    8476,    8548
    1868,    2375,    1224,    1235,    2380,    2376,    1223,    1234,    2379,    8518,    5410,    8549,    8546,    8520,    5409,    8545,    8542,    8521,    5376,    5392,    8548
    1869,    2360,    2353,    2374,    2381,    2359,    2354,    2375,    2380,    8495,    8531,    8550,    8551,    8494,    8532,    8546,    8547,    8478,    8467,    8519,    8552
    1870,    1236,    1217,    2360,    2381,    1235,    1218,    2359,    2380,    5393,    8477,    8551,    8553,    5391,    8475,    8547,    8549,    5394,    5368,    8478,    8552
    1871,    2374,    1225,    1236,    2381,    2375,    1224,    1235,    2380,    8516,    5411,    8553,    8550,    8518,    5410,    8549,    8546,    8519,    5377,    5394,    8552
    1872,    2361,    2352,    2373,    2382,    2360,    2353,    2374,    2381,    8496,    8530,    8554,    8555,    8495,    8531,    8550,    8551,    8480,    8466,    8517,    8556
    1873,    1237,    1216,    2361,    2382,    1236,    1217,    2360,    2381,    5395,    8479,    8555,    8557,    5393,    8477,    8551,    8553,    5396,    5367,    8480,    8556
    1874,    2373,    1226,    1237,    2382,    2374,    1225,    1236,    2381,    8514,    5412,    8557,    8554,    8516,    5411,    8553,    8550,    8517,    5378,    5396,    8556
    1875,    2362,    2351,    2372,    2383,    2361,    2352,    2373,    2382,    8497,    8529,    8558,    8559,    8496,    8530,    8554,    8555,    8482,    8465,    8515,    8560
    1876,    1238,    1215,    2362,    2383,    1237,    1216,    2361,    2382,    5397,    8481,    8559,    8561,    5395,    8479,    8555,    8557,    5398,    5366,    8482,    8560
    1877,    2372,    1227,    1238,    2383,    2373,    1226,    1237,    2382,    8512,    5413,    8561,    8558,    8514,    5412,    8557,    8554,    8515,    5379,    5398,    8560
    1878,    2363,    2350,    2371,    2384,    2362,    2351,    2372,    2383,    8498,    8528,    8562,    8563,    8497,    8529,    8558,    8559,    8484,    8464,    8513,    8564
    1879,    1239,    1214,    2363,    2384,    1238,    1215,    2362,    2383,    5399,    8483,    8563,    8565,    5397,    8481,    8559,    8561,    5400,    5365,    8484,    8564
    1880,    2371,    1228,    1239,    2384,    2372,    1227,    1238,    2383,    8510,    5414,    8565,    8562,    8512,    5413,    8561,    8558,    8513,    5380,    5400,    8564
    1881,    2364,    2349,    2370,    2385,    2363,    2350,    2371,    2384,    8499,    8527,    8566,    8567,    8498,    8528,    8562,    8563,    8486,    8463,    8511,    8568
    1882,    1240,    1213,    2364,    2385,    1239,    1214,    2363,    2384,    5401,    8485,    8567,    8569,    5399,    8483,    8563,    8565,    5402,    5364,    8486,    8568
    1883,    2370,    1229,    1240,    2385,    2371,    1228,    1239,    2384,    8508,    5415,    8569,    8566,    8510,    5414,    8565,    8562,    8511,    5381,    5402,    8568
    1884,    2365,    2348,    2369,    2386,    2364,    2349,    2370,    2385,    8500,    8526,    8570,    8571,    8499,    8527,    8566,    8567,    8488,    8462,    8509,    8572
    1885,    1241,    1212,    2365,    2386,    1240,    1213,    2364,    2385,    5403,    8487,    8571,    8573,    5401,    8485,    8567,    8569,    5404,    5363,    8488,    8572
    1886,    2369,    1230,    1241,    2386,    2370,    1229,    1240,    2385,    8506,    5416,    8573,    8570,    8508,    5415,    8569,    8566,    8509,    5382,    5404,    8572
    1887,    2366,    2347,    2368,    2387,    2365,    2348,    2369,    2386,    8501,    8525,    8574,    8575,    8500,    8526,    8570,    8571,    8490,    8461,    8507,    8576
    1888,    1242,    1211,    2366,    2387,    1241,    1212,    2365,    2386,    5405,    8489,    8575,    8577,    5403,    8487,    8571,    8573,    5406,    5362,    8490,    8576
    1889,    2368,    1231,    1242,    2387,    2369,    1230,    1241,    2386,    8504,    5417,    8577,    8574,    8506,    5416,    8573,    8570,    8507,    5383,    5406,    8576
    1890,    2346,    2345,    2367,    2388,    2366,    2347,    2368,    2387,    8459,    8502,    8536,    8535,    8501,    8525,    8574,    8575,    8491,    8460,    8505,    8578
    1891,    1205,    1204,    2346,    2388,    1242,    1211,    2366,    2387,    5373,    8458,    8535,    8537,    5405,    8489,    8575,    8577,    5407,    5361,    8491,    8578
    1892,    2367,    1203,    1205,    2388,    2368,    1231,    1242,    2387,    8503,    5372,    8537,    8536,    8504,    5417,    8577,    8574,    8505,    5384,    5407,    8578
    1893,    1301,    2941,    2952,    1664,    1305,    2946,    3007,    1705,    8584,    8608,    8607,    6546,    8595,    8739,    8740,    6646,    6624,    8600,    8738,    6656
    1894,    2941,    2940,    2962,    2952,    2946,    2945,    3008,    3007,    8583,    8629,    8628,    8608,    8594,    8742,    8743,    8739,    8600,    8599,    8741,    8738
    1895,    2940,    2939,    2972,    2962,    2945,    2944,    3009,    3008,    8582,    8650,    8649,    8629,    8592,    8745,    8746,    8742,    8599,    8598,    8744,    8741
    1896,    2939,    2938,    2982,    2972,    2944,    2943,    3010,    3009,    8581,    8671,    8670,    8650,    8590,    8748,    8749,    8745,    8598,    8597,    8747,    8744
    1897,    2938,    2937,    2992,    2982,    2943,    2942,    3011,    3010,    8580,    8692,    8691,    8671,    8588,    8751,    8752,    8748,    8597,    8596,    8750,    8747
    1898,    2937,    2345,    2347,    2992,    2942,    2367,    2368,    3011,    8579,    8460,    8712,    8692,    8586,    8505,    8753,    8751,    8596,    8502,    8525,    8750
    1899,    1664,    2952,    2953,    1663,    1705,    3007,    3012,    1704,    8607,    8610,    8609,    6545,    8740,    8755,    8756,    6645,    6656,    8738,    8754,    6655
    1900,    2952,    2962,    2963,    2953,    3007,    3008,    3013,    3012,    8628,    8631,    8630,    8610,    8743,    8758,    8759,    8755,    8738,    8741,    8757,    8754
    1901,    2962,    2972,    2973,    2963,    3008,    3009,    3014,    3013,    8649,    8652,    8651,    8631,    8746,    8761,    8762,    8758,    8741,    8744,    8760,    8757
    1902,    2972,    2982,    2983,    2973,    3009,    3010,    3015,    3014,    8670,    8673,    8672,    8652,    8749,    8764,    8765,    8761,    8744,    8747,    8763,    8760
    1903,    2982,    2992,    2993,    2983,    3010,    3011,    3016,    3015,    8691,    8694,    8693,    8673,    8752,    8767,    8768,    8764,    8747,    8750,    8766,    8763
    1904,    2992,    2347,    2348,    2993,    3011,    2368,    2369,    3016,    8712,    8461,    8713,    8694,    8753,    8507,    8769,    8767,    8750,    8525,    8526,    8766
    1905,    1663,    2953,    2954,    1662,    1704,    3012,    3017,    1703,    8609,    8612,    8611,    6544,    8756,    8771,    8772,    6643,    6655,    8754,    8770,    6654
    1906,    2953,    2963,    2964,    2954,    3012,    3013,    3018,    3017,    8630,    8633,    8632,    8612,    8759,    8774,    8775,    8771,    8754,    8757,    8773,    8770
    1907,    2963,    2973,    2974,    2964,    3013,    3014,    3019,    3018,    8651,    8654,    8653,    8633,    8762,    8777,    8778,    8774,    8757,    8760,    8776,    8773
    1908,    2973,    2983,    2984,    2974,    3014,    3015,    3020,    3019,    8672,    8675,    8674,    8654,    8765,    8780,    8781,    8777,    8760,    8763,    8779,    8776
    1909,    2983,    2993,    2994,    2984,    3015,    3016,    3021,    3020,    8693,    8696,    8695,    8675,    8768,    8783,    8784,    8780,    8763,    8766,    8782,    8779
    1910,    2993,    2348,    2349,    2994,    3016,    2369,    2370,    3021,    8713,    8462,    8714,    8696,    8769,    8509,    8785,    8783,    8766,    8526,    8527,    8782
    1911,    1662,    2954,    2955,    1661,    1703,    3017,    3022,    1702,    8611,    8614,    8613,    6543,    8772,    8787,    8788,    6641,    6654,    8770,    8786,    6653
    1912,    2954,    2964,    2965,    2955,    3017,    3018,    3023,    3022,    8632,    8635,    8634,    8614,    8775,    8790,    8791,    8787,    8770,    8773,    8789,    8786
    1913,    2964,    2974,    2975,    2965,    3018,    3019,    3024,    3023,    8653,    8656,    8655,    8635,    8778,    8793,    8794,    8790,    8773,    8776,    8792,    8789
    1914,    2974,    2984,    2985,    2975,    3019,    3020,    3025,    3024,    8674,    8677,    8676,    8656,    8781,    8796,    8797,    8793,    8776,    8779,    8795,    8792
    1915,    2984,    2994,    2995,    2985,    3020,    3021,    3026,    3025,    8695,    8698,    8697,    8677,    8784,    8799,    8800,    8796,    8779,    8782,    8798,    8795
    1916,    2994,    2349,    2350,    2995,    3021,    2370,    2371,    3026,    8714,    8463,    8715,    8698,    8785,    8511,    8801,    8799,    8782,    8527,    8528,    8798
    1917,    1661,    2955,    2956,    1660,    1702,    3022,    3027,    1701,    8613,    8616,    8615,    6542,    8788,    8803,    8804,    6639,    6653,    8786,    8802,    6652
    1918,    2955,    2965,    2966,    2956,    3022,    3023,    3028,    3027,    8634,    8637,    8636,    8616,    8791,    8806,    8807,    8803,    8786,    8789,    8805,    8802
    1919,    2965,    2975,    2976,    2966,    3023,    3024,    3029,    3028,    8655,    8658,    8657,    8637,    8794,    8809,    8810,    8806,    8789,    8792,    8808,    8805
    1920,    2975,    2985,    2986,    2976,    3024,    3025,    3030,    3029,    8676,    8679,    8678,    8658,    8797,    8812,    8813,    8809,    8792,    8795,    8811,    8808
    1921,    2985,    2995,    2996,    2986,    3025,    3026,    3031,    3030,    8697,    8700,    8699,    8679,    8800,    8815,    8816,    8812,    8795,    8798,    8814,    8811
    1922,    2995,    2350,    2351,    2996,    3026,    2371,    2372,    3031,    8715,    8464,    8716,    8700,    8801,    8513,    8817,    8815,    8798,    8528,    8529,    8814
    1923,    1660,    2956,    2957,    1659,    1701,    3027,    3032,    1700,    8615,    8618,    8617,    6541,    8804,    8819,    8820,    6637,    6652,    8802,    8818,    6651
    1924,    2956,    2966,    2967,    2957,    3027,    3028,    3033,    3032,    8636,    8639,    8638,    8618,    8807,    8822,    8823,    8819,    8802,    8805,    8821,    8818
    1925,    2966,    2976,    2977,    2967,    3028,    3029,    3034,    3033,    8657,    8660,    8659,    8639,    8810,    8825,    8826,    8822,    8805,    8808,    8824,    8821
    1926,    2976,    2986,    2987,    2977,    3029,    3030,    3035,    3034,    8678,    8681,    8680,    8660,    8813,    8828,    8829,    8825,    8808,    8811,    8827,    8824
    1927,    2986,    2996,    2997,    2987,    3030,    3031,    3036,    3035,    8699,    8702,    8701,    8681,    8816,    8831,    8832,    8828,    8811,    8814,    8830,    8827
    1928,    2996,    2351,    2352,    2997,    3031,    2372,    2373,    3036,    8716,    8465,    8717,    8702,    8817,    8515,    8833,    8831,    8814,    8529,    8530,    8830
    1929,    1659,    2957,    2958,    1658,    1700,    3032,    3037,    1699,    8617,    8620,    8619,    6540,    8820,    8835,    8836,    6635,    6651,    8818,    8834,    6650
    1930,    2957,    2967,    2968,    2958,    3032,    3033,    3038,    3037,    8638,    8641,    8640,    8620,    8823,    8838,    8839,    8835,    8818,    8821,    8837,    8834
    1931,    2967,    2977,    2978,    2968,    3033,    3034,    3039,    3038,    8659,    8662,    8661,    8641,    8826,    8841,    8842,    8838,    8821,    8824,    8840,    8837
    1932,    2977,    2987,    2988,    2978,    3034,    3035,    3040,    3039,    8680,    8683,    8682,    8662,    8829,    8844,    8845,    8841,    8824,    8827,    8843,    8840
    1933,    2987,    2997,    2998,    2988,    3035,    3036,    3041,    3040,    8701,    8704,    8703,    8683,    8832,    8847,    8848,    8844,    8827,    8830,    8846,    8843
    1934,    2997,    2352,    2353,    2998,    3036,    2373,    2374,    3041,    8717,    8466,    8718,    8704,    8833,    8517,    8849,    8847,    8830,    8530,    8531,    8846
    1935,    1658,    2958,    2959,    1657,    1699,    3037,    3042,    1698,    8619,    8622,    8621,    6539,    8836,    8851,    8852,    6633,    6650,    8834,    8850,    6649
    1936,    2958,    2968,    2969,    2959,    3037,    3038,    3043,    3042,    8640,    8643,    8642,    8622,    8839,    8854,    8855,    8851,    8834,    8837,    8853,    8850
    1937,    2968,    2978,    2979,    2969,    3038,    3039,    3044,    3043,    8661,    8664,    8663,    8643,    8842,    8857,    8858,    8854,    8837,    8840,    8856,    8853
    1938,    2978,    2988,    2989,    2979,    3039,    3040,    3045,    3044,    8682,    8685,    8684,    8664,    8845,    8860,    8861,    8857,    8840,    8843,    8859,    8856
    1939,    2988,    2998,    2999,    2989,    3040,    3041,    3046,    3045,    8703,    8706,    8705,    8685,    8848,    8863,    8864,    8860,    8843,    8846,    8862,    8859
    1940,    2998,    2353,    2354,    2999,    3041,    2374,    2375,    3046,    8718,    8467,    8719,    8706,    8849,    8519,    8865,    8863,    8846,    8531,    8532,    8862
    1941,    1657,    2959,    2960,    1656,    1698,    3042,    3047,    1697,    8621,    8624,    8623,    6538,    8852,    8867,    8868,    6631,    6649,    8850,    8866,    6648
    1942,    2959,    2969,    2970,    2960,    3042,    3043,    3048,    3047,    8642,    8645,    8644,    8624,    8855,    8870,    8871,    8867,    8850,    8853,    8869,    8866
    1943,    2969,    2979,    2980,    2970,    3043,    3044,    3049,    3048,    8663,    8666,    8665,    8645,    8858,    8873,    8874,    8870,    8853,    8856,    8872,    8869
    1944,    2979,    2989,    2990,    2980,    3044,    3045,    3050,    3049,    8684,    8687,    8686,    8666,    8861,    8876,    8877,    8873,    8856,    8859,    8875,    8872
    1945,    2989,    2999,    3000,    2990,    3045,    3046,    3051,    3050,    8705,    8708,    8707,    8687,    8864,    8879,    8880,    8876,    8859,    8862,    8878,    8875
    1946,    2999,    2354,    2355,    3000,    3046,    2375,    2376,    3051,    8719,    8468,    8720,    8708,    8865,    8521,    8881,    8879,    8862,    8532,    8533,    8878
    1947,    1656,    2960,    2961,    1655,    1697,    3047,    3052,    1696,    8623,    8626,    8625,    6537,    8868,    8883,    8884,    6629,    6648,    8866,    8882,    6647
    1948,    2960,    2970,    2971,    2961,    3047,    3048,    3053,    3052,    8644,    8647,    8646,    8626,    8871,    8886,    8887,    8883,    8866,    8869,    8885,    8882
    1949,    2970,    2980,    2981,    2971,    3048,    3049,    3054,    3053,    8665,    8668,    8667,    8647,    8874,    8889,    8890,    8886,    8869,    8872,    8888,    8885
    1950,    2980,    2990,    2991,    2981,    3049,    3050,    3055,    3054,    8686,    8689,    8688,    8668,    8877,    8892,    8893,    8889,    8872,    8875,    8891,    8888
    1951,    2990,    3000,    3001,    2991,    3050,    3051,    3056,    3055,    8707,    8710,    8709,    8689,    8880,    8895,    8896,    8892,    8875,    8878,    8894,    8891
    1952,    3000,    2355,    2356,    3001,    3051,    2376,    2377,    3056,    8720,    8469,    8721,    8710,    8881,    8523,    8897,    8895,    8878,    8533,    8534,    8894
    1953,    1655,    2961,    2947,    1651,    1696,    3052,    3002,    1695,    8625,    8627,    8601,    6536,    8884,    8898,    8723,    6627,    6647,    8882,    8733,    6449
    1954,    2961,    2971,    2948,    2947,    3052,    3053,    3003,    3002,    8646,    8648,    8602,    8627,    8887,    8899,    8725,    8898,    8882,    8885,    8734,    8733
    1955,    2971,    2981,    2949,    2948,    3053,    3054,    3004,    3003,    8667,    8669,    8603,    8648,    8890,    8900,    8727,    8899,    8885,    8888,    8735,    8734
    1956,    2981,    2991,    2950,    2949,    3054,    3055,    3005,    3004,    8688,    8690,    8604,    8669,    8893,    8901,    8729,    8900,    8888,    8891,    8736,    8735
    1957,    2991,    3001,    2951,    2950,    3055,    3056,    3006,    3005,    8709,    8711,    8605,    8690,    8896,    8902,    8731,    8901,    8891,    8894,    8737,    8736
    1958,    3001,    2356,    2341,    2951,    3056,    2377,    2343,    3006,    8721,    8470,    8606,    8711,    8897,    8524,    8732,    8902,    8894,    8534,    8454,    8737
    1959,    1305,    2946,    3007,    1705,       2,    2525,    2539,     300,    8595,    8739,    8740,    6646,    5546,    5566,    5568,    3153,    6625,    8593,    8903,    6644
    1960,    2946,    2945,    3008,    3007,    2525,    2526,    2538,    2539,    8594,    8742,    8743,    8739,    5547,    5564,    5567,    5566,    8593,    8591,    8904,    8903
    1961,    2945,    2944,    3009,    3008,    2526,    2527,    2537,    2538,    8592,    8745,    8746,    8742,    5548,    5562,    5565,    5564,    8591,    8589,    8905,    8904
    1962,    2944,    2943,    3010,    3009,    2527,    2528,    2536,    2537,    8590,    8748,    8749,    8745,    5549,    5560,    5563,    5562,    8589,    8587,    8906,    8905
    1963,    2943,    2942,    3011,    3010,    2528,    2529,    2535,    2536,    8588,    8751,    8752,    8748,    5550,    5558,    5561,    5560,    8587,    8585,    8907,    8906
    1964,    2942,    2367,    2368,    3011,    2529,    1203,    1231,    2535,    8586,    8505,    8753,    8751,    5551,    5384,    5559,    5558,    8585,    8503,    8504,    8907
    1965,    1705,    3007,    3012,    1704,     300,    2539,    2544,     301,    8740,    8755,    8756,    6645,    5568,    5577,    5579,    3154,    6644,    8903,    8908,    6642
    1966,    3007,    3008,    3013,    3012,    2539,    2538,    2543,    2544,    8743,    8758,    8759,    8755,    5567,    5575,    5578,    5577,    8903,    8904,    8909,    8908
    1967,    3008,    3009,    3014,    3013,    2538,    2537,    2542,    2543,    8746,    8761,    8762,    8758,    5565,    5573,    5576,    5575,    8904,    8905,    8910,    8909
    1968,    3009,    3010,    3015,    3014,    2537,    2536,    2541,    2542,    8749,    8764,    8765,    8761,    5563,    5571,    5574,    5573,    8905,    8906,    8911,    8910
    1969,    3010,    3011,    3016,    3015,    2536,    2535,    2540,    2541,    8752,    8767,    8768,    8764,    5561,    5569,    5572,    5571,    8906,    8907,    8912,    8911
    1970,    3011,    2368,    2369,    3016,    2535,    1231,    1230,    2540,    8753,    8507,    8769,    8767,    5559,    5383,    5570,    5569,    8907,    8504,    8506,    8912
    1971,    1704,    3012,    3017,    1703,     301,    2544,    2549,     302,    8756,    8771,    8772,    6643,    5579,    5588,    5590,    3155,    6642,    8908,    8913,    6640
    1972,    3012,    3013,    3018,    3017,    2544,    2543,    2548,    2549,    8759,    8774,    8775,    8771,    5578,    5586,    5589,    5588,    8908,    8909,    8914,    8913
    1973,    3013,    3014,    3019,    3018,    2543,    2542,    2547,    2548,    8762,    8777,    8778,    8774,    5576,    5584,    5587,    5586,    8909,    8910,    8915,    8914
    1974,    3014,    3015,    3020,    3019,    2542,    2541,    2546,    2547,    8765,    8780,    8781,    8777,    5574,    5582,    5585,    5584,    8910,    8911,    8916,    8915
    1975,    3015,    3016,    3021,    3020,    2541,    2540,    2545,    2546,    8768,    8783,    8784,    8780,    5572,    5580,    5583,    5582,    8911,    8912,    8917,    8916
    1976,    3016,    2369,    2370,    3021,    2540,    1230,    1229,    2545,    8769,    8509,    8785,    8783,    5570,    5382,    5581,    5580,    8912,    8506,    8508,    8917
    1977,    1703,    3017,    3022,    1702,     302,    2549,    2554,     303,    8772,    8787,    8788,    6641,    5590,    5599,    5601,    3156,    6640,    8913,    8918,    6638
    1978,    3017,    3018,    3023,    3022,    2549,    2548,    2553,    2554,    8775,    8790,    8791,    8787,    5589,    5597,    5600,    5599,    8913,    8914,    8919,    8918
    1979,    3018,    3019,    3024,    3023,    2548,    2547,    2552,    2553,    8778,    8793,    8794,    8790,    5587,    5595,    5598,    5597,    8914,    8915,    8920,    8919
    1980,    3019,    3020,    3025,    3024,    2547,    2546,    2551,    2552,    8781,    8796,    8797,    8793,    5585,    5593,    5596,    5595,    8915,    8916,    8921,    8920
    1981,    3020,    3021,    3026,    3025,    2546,    2545,    2550,    2551,    8784,    8799,    8800,    8796,    5583,    5591,    5594,    5593,    8916,    8917,    8922,    8921
    1982,    3021,    2370,    2371,    3026,    2545,    1229,    1228,    2550,    8785,    8511,    8801,    8799,    5581,    5381,    5592,    5591,    8917,    8508,    8510,    8922
    1983,    1702,    3022,    3027,    1701,     303,    2554,    2559,     304,    8788,    8803,    8804,    6639,    5601,    5610,    5612,    3157,    6638,    8918,    8923,    6636
    1984,    3022,    3023,    3028,    3027,    2554,    2553,    2558,    2559,    8791,    8806,    8807,    8803,    5600,    5608,    5611,    5610,    8918,    8919,    8924,    8923
    1985,    3023,    3024,    3029,    3028,    2553,    2552,    2557,    2558,    8794,    8809,    8810,    8806,    5598,    5606,    5609,    5608,    8919,    8920,    8925,    8924
    1986,    3024,    3025,    3030,    3029,    2552,    2551,    2556,    2557,    8797,    8812,    8813,    8809,    5596,    5604,    5607,    5606,    8920,    8921,    8926,    8925
    1987,    3025,    3026,    3031,    3030,    2551,    2550,    2555,    2556,    8800,    8815,    8816,    8812,    5594,    5602,    5605,    5604,    8921,    8922,    8927,    8926
    1988,    3026,    2371,    2372,    3031,    2550,    1228,    1227,    2555,    8801,    8513,    8817,    8815,    5592,    5380,    5603,    5602,    8922,    8510,    8512,    8927
    1989,    1701,    3027,    3032,    1700,     304,    2559,    2564,     305,    8804,    8819,    8820,    6637,    5612,    5621,    5623,    3158,    6636,    8923,    8928,    6634
    1990,    3027,    3028,    3033,    3032,    2559,    2558,    2563,    2564,    8807,    8822,    8823,    8819,    5611,    5619,    5622,    5621,    8923,    8924,    8929,    8928
    1991,    3028,    3029,    3034,    3033,    2558,    2557,    2562,    2563,    8810,    8825,    8826,    8822,    5609,    5617,    5620,    5619,    8924,    8925,    8930,    8929
    1992,    3029,    3030,    3035,    3034,    2557,    2556,    2561,    2562,    8813,    8828,    8829,    8825,    5607,    5615,    5618,    5617,    8925,    8926,    8931,    8930
    1993,    3030,    3031,    3036,    3035,    2556,    2555,    2560,    2561,    8816,    8831,    8832,    8828,    5605,    5613,    5616,    5615,    8926,    8927,    8932,    8931
    1994,    3031,    2372,    2373,    3036,    2555,    1227,    1226,    2560,    8817,    8515,    8833,    8831,    5603,    5379,    5614,    5613,    8927,    8512,    8514,    8932
    1995,    1700,    3032,    3037,    1699,     305,    2564,    2569,     306,    8820,    8835,    8836,    6635,    5623,    5632,    5634,    3159,    6634,    8928,    8933,    6632
    1996,    3032,    3033,    3038,    3037,    2564,    2563,    2568,    2569,    8823,    8838,    8839,    8835,    5622,    5630,    5633,    5632,    8928,    8929,    8934,    8933
    1997,    3033,    3034,    3039,    3038,    2563,    2562,    2567,    2568,    8826,    8841,    8842,    8838,    5620,    5628,    5631,    5630,    8929,    8930,    8935,    8934
    1998,    3034,    3035,    3040,    3039,    2562,    2561,    2566,    2567,    8829,    8844,    8845,    8841,    5618,    5626,    5629,    5628,    8930,    8931,    8936,    8935
    1999,    3035,    3036,    3041,    3040,    2561,    2560,    2565,    2566,    8832,    8847,    8848,    8844,    5616,    5624,    5627,    5626,    8931,    8932,    8937,    8936
    2000,    3036,    2373,    2374,    3041,    2560,    1226,    1225,    2565,    8833,    8517,    8849,    8847,    5614,    5378,    5625,    5624,    8932,    8514,    8516,    8937
    2001,    1699,    3037,    3042,    1698,     306,    2569,    2574,     307,    8836,    8851,    8852,    6633,    5634,    5643,    5645,    3160,    6632,    8933,    8938,    6630
    2002,    3037,    3038,    3043,    3042,    2569,    2568,    2573,    2574,    8839,    8854,    8855,    8851,    5633,    5641,    5644,    5643,    8933,    8934,    8939,    8938
    2003,    3038,    3039,    3044,    3043,    2568,    2567,    2572,    2573,    8842,    8857,    8858,    8854,    5631,    5639,    5642,    5641,    8934,    8935,    8940,    8939
    2004,    3039,    3040,    3045,    3044,    2567,    2566,    2571,    2572,    8845,    8860,    8861,    8857,    5629,    5637,    5640,    5639,    8935,    8936,    8941,    8940
    2005,    3040,    3041,    3046,    3045,    2566,    2565,    2570,    2571,    8848,    8863,    8864,    8860,    5627,    5635,    5638,    5637,    8936,    8937,    8942,    8941
    2006,    3041,    2374,    2375,    3046,    2565,    1225,    1224,    2570,    8849,    8519,    8865,    8863,    5625,    5377,    5636,    5635,    8937,    8516,    8518,    8942
    2007,    1698,    3042,    3047,    1697,     307,    2574,    2579,     308,    8852,    8867,    8868,    6631,    5645,    5654,    5656,    3161,    6630,    8938,    8943,    6628
    2008,    3042,    3043,    3048,    3047,    2574,    2573,    2578,    2579,    8855,    8870,    8871,    8867,    5644,    5652,    5655,    5654,    8938,    8939,    8944,    8943
    2009,    3043,    3044,    3049,    3048,    2573,    2572,    2577,    2578,    8858,    8873,    8874,    8870,    5642,    5650,    5653,    5652,    8939,    8940,    8945,    8944
    2010,    3044,    3045,    3050,    3049,    2572,    2571,    2576,    2577,    8861,    8876,    8877,    8873,    5640,    5648,    5651,    5650,    8940,    8941,    8946,    8945
    2011,    3045,    3046,    3051,    3050,    2571,    2570,    2575,    2576,    8864,    8879,    8880,    8876,    5638,    5646,    5649,    5648,    8941,    8942,    8947,    8946
    2012,    3046,    2375,    2376,    3051,    2570,    1224,    1223,    2575,    8865,    8521,    8881,    8879,    5636,    5376,    5647,    5646,    8942,    8518,    8520,    8947
    2013,    1697,    3047,    3052,    1696,     308,    2579,    2584,     309,    8868,    8883,    8884,    6629,    5656,    5665,    5667,    3162,    6628,    8943,    8948,    6626
    2014,    3047,    3048,    3053,    3052,    2579,    2578,    2583,    2584,    8871,    8886,    8887,    8883,    5655,    5663,    5666,    5665,    8943,    8944,    8949,    8948
    2015,    3048,    3049,    3054,    3053,    2578,    2577,    2582,    2583,    8874,    8889,    8890,    8886,    5653,    5661,    5664,    5663,    8944,    8945,    8950,    8949
    2016,    3049,    3050,    3055,    3054,    2577,    2576,    2581,    2582,    8877,    8892,    8893,    8889,    5651,    5659,    5662,    5661,    8945,    8946,    8951,    8950
    2017,    3050,    3051,    3056,    3055,    2576,    2575,    2580,    2581,    8880,    8895,    8896,    8892,    5649,    5657,    5660,    5659,    8946,    8947,    8952,    8951
    2018,    3051,    2376,    2377,    3056,    2575,    1223,    1222,    2580,    8881,    8523,    8897,    8895,    5647,    5375,    5658,    5657,    8947,    8520,    8522,    8952
    2019,    1696,    3052,    3002,    1695,     309,    2584,    2534,     295,    8884,    8898,    8723,    6627,    5667,    5672,    5557,    3163,    6626,    8948,    8722,    6448
    2020,    3052,    3053,    3003,    3002,    2584,    2583,    2533,    2534,    8887,    8899,    8725,    8898,    5666,    5671,    5556,    5672,    8948,    8949,    8724,    8722
    2021,    3053,    3054,    3004,    3003,    2583,    2582,    2532,    2533,    8890,    8900,    8727,    8899,    5664,    5670,    5555,    5671,    8949,    8950,    8726,    8724
    2022,    3054,    3055,    3005,    3004,    2582,    2581,    2531,    2532,    8893,    8901,    8729,    8900,    5662,    5669,    5554,    5670,    8950,    8951,    8728,    8726
    2023,    3055,    3056,    3006,    3005,    2581,    2580,    2530,    2531,    8896,    8902,    8731,    8901,    5660,    5668,    5553,    5669,    8951,    8952,    8730,    8728
    2024,    3056,    2377,    2343,    3006,    2580,    1222,    1221,    2530,    8897,    8524,    8732,    8902,    5658,    5374,    5552,    5668,    8952,    8522,    8453,    8730
    2025,    1368,    3071,    3077,    1372,    1393,    3076,    3097,    1397,    8978,    8996,    8995,    7875,    8989,    9045,    9046,    7926,    7916,    8994,    9044,    7930
    2026,    3071,    3070,    3081,    3077,    3076,    3075,    3098,    3097,    8977,    9005,    9004,    8996,    8988,    9048,    9049,    9045,    8994,    8993,    9047,    9044
    2027,    3070,    3069,    3085,    3081,    3075,    3074,    3099,    3098,    8976,    9014,    9013,    9005,    8986,    9051,    9052,    9048,    8993,    8992,    9050,    9047
    2028,    3069,    3068,    3089,    3085,    3074,    3073,    3100,    3099,    8975,    9023,    9022,    9014,    8984,    9054,    9055,    9051,    8992,    8991,    9053,    9050
    2029,    3068,    3067,    3093,    3089,    3073,    3072,    3101,    3100,    8974,    9032,    9031,    9023,    8982,    9057,    9058,    9054,    8991,    8990,    9056,    9053
    2030,    3067,    3057,    3062,    3093,    3072,    3058,    3066,    3101,    8973,    8959,    9040,    9032,    8980,    8968,    9059,    9057,    8990,    8953,    8972,    9056
    2031,    1372,    3077,    3078,    1371,    1397,    3097,    3102,    1396,    8995,    8998,    8997,    7874,    9046,    9061,    9062,    7925,    7930,    9044,    9060,    7929
    2032,    3077,    3081,    3082,    3078,    3097,    3098,    3103,    3102,    9004,    9007,    9006,    8998,    9049,    9064,    9065,    9061,    9044,    9047,    9063,    9060
    2033,    3081,    3085,    3086,    3082,    3098,    3099,    3104,    3103,    9013,    9016,    9015,    9007,    9052,    9067,    9068,    9064,    9047,    9050,    9066,    9063
    2034,    3085,    3089,    3090,    3086,    3099,    3100,    3105,    3104,    9022,    9025,    9024,    9016,    9055,    9070,    9071,    9067,    9050,    9053,    9069,    9066
    2035,    3089,    3093,    3094,    3090,    3100,    3101,    3106,    3105,    9031,    9034,    9033,    9025,    9058,    9073,    9074,    9070,    9053,    9056,    9072,    9069
    2036,    3093,    3062,    3061,    3094,    3101,    3066,    3065,    3106,    9040,    8958,    9041,    9034,    9059,    8967,    9075,    9073,    9056,    8972,    8971,    9072
    2037,    1371,    3078,    3079,    1370,    1396,    3102,    3107,    1395,    8997,    9000,    8999,    7873,    9062,    9077,    9078,    7923,    7929,    9060,    9076,    7928
    2038,    3078,    3082,    3083,    3079,    3102,    3103,    3108,    3107,    9006,    9009,    9008,    9000,    9065,    9080,    9081,    9077,    9060,    9063,    9079,    9076
    2039,    3082,    3086,    3087,    3083,    3103,    3104,    3109,    3108,    9015,    9018,    9017,    9009,    9068,    9083,    9084,    9080,    9063,    9066,    9082,    9079
    2040,    3086,    3090,    3091,    3087,    3104,    3105,    3110,    3109,    9024,    9027,    9026,    9018,    9071,    9086,    9087,    9083,    9066,    9069,    9085,    9082
    2041,    3090,    3094,    3095,    3091,    3105,    3106,    3111,    3110,    9033,    9036,    9035,    9027,    9074,    9089,    9090,    9086,    9069,    9072,    9088,    9085
    2042,    3094,    3061,    3060,    3095,    3106,    3065,    3064,    3111,    9041,    8957,    9042,    9036,    9075,    8965,    9091,    9089,    9072,    8971,    8970,    9088
    2043,    1370,    3079,    3080,    1369,    1395,    3107,    3112,    1394,    8999,    9002,    9001,    7872,    9078,    9093,    9094,    7921,    7928,    9076,    9092,    7927
    2044,    3079,    3083,    3084,    3080,    3107,    3108,    3113,    3112,    9008,    9011,    9010,    9002,    9081,    9096,    9097,    9093,    9076,    9079,    9095,    9092
    2045,    3083,    3087,    3088,    3084,    3108,    3109,    3114,    3113,    9017,    9020,    9019,    9011,    9084,    9099,    9100,    9096,    9079,    9082,    9098,    9095
    2046,    3087,    3091,    3092,    3088,    3109,    3110,    3115,    3114,    9026,    9029,    9028,    9020,    9087,    9102,    9103,    9099,    9082,    9085,    9101,    9098
    2047,    3091,    3095,    3096,    3092,    3110,    3111,    3116,    3115,    9035,    9038,    9037,    9029,    9090,    9105,    9106,    9102,    9085,    9088,    9104,    9101
    2048,    3095,    3060,    3059,    3096,    3111,    3064,    3063,    3116,    9042,    8956,    9043,    9038,    9091,    8963,    9107,    9105,    9088,    8970,    8969,    9104
    2049,    1369,    3080,    2941,    1301,    1394,    3112,    2946,    1305,    9001,    9003,    8584,    7871,    9094,    9108,    8595,    7919,    7927,    9092,    8600,    6624
    2050,    3080,    3084,    2940,    2941,    3112,    3113,    2945,    2946,    9010,    9012,    8583,    9003,    9097,    9109,    8594,    9108,    9092,    9095,    8599,    8600
    2051,    3084,    3088,    2939,    2940,    3113,    3114,    2944,    2945,    9019,    9021,    8582,    9012,    9100,    9110,    8592,    9109,    9095,    9098,    8598,    8599
    2052,    3088,    3092,    2938,    2939,    3114,    3115,    2943,    2944,    9028,    9030,    8581,    9021,    9103,    9111,    8590,    9110,    9098,    9101,    8597,    8598
    2053,    3092,    3096,    2937,    2938,    3115,    3116,    2942,    2943,    9037,    9039,    8580,    9030,    9106,    9112,    8588,    9111,    9101,    9104,    8596,    8597
    2054,    3096,    3059,    2345,    2937,    3116,    3063,    2367,    2942,    9043,    8955,    8579,    9039,    9107,    8961,    8586,    9112,    9104,    8969,    8502,    8596
    2055,    1393,    3076,    3097,    1397,      50,    2706,    2719,      51,    8989,    9045,    9046,    7926,    6047,    6066,    6068,    4696,    7917,    8987,    9113,    7924
    2056,    3076,    3075,    3098,    3097,    2706,    2707,    2718,    2719,    8988,    9048,    9049,    9045,    6048,    6064,    6067,    6066,    8987,    8985,    9114,    9113
    2057,    3075,    3074,    3099,    3098,    2707,    2708,    2717,    2718,    8986,    9051,    9052,    9048,    6049,    6062,    6065,    6064,    8985,    8983,    9115,    9114
    2058,    3074,    3073,    3100,    3099,    2708,    2709,    2716,    2717,    8984,    9054,    9055,    9051,    6050,    6060,    6063,    6062,    8983,    8981,    9116,    9115
    2059,    3073,    3072,    3101,    3100,    2709,    2710,    2715,    2716,    8982,    9057,    9058,    9054,    6051,    6058,    6061,    6060,    8981,    8979,    9117,    9116
    2060,    3072,    3058,    3066,    3101,    2710,    2705,    2711,    2715,    8980,    8968,    9059,    9057,    6052,    6053,    6059,    6058,    8979,    8954,    8966,    9117
    2061,    1397,    3097,    3102,    1396,      51,    2719,    2724,      52,    9046,    9061,    9062,    7925,    6068,    6077,    6079,    4697,    7924,    9113,    9118,    7922
    2062,    3097,    3098,    3103,    3102,    2719,    2718,    2723,    2724,    9049,    9064,    9065,    9061,    6067,    6075,    6078,    6077,    9113,    9114,    9119,    9118
    2063,    3098,    3099,    3104,    3103,    2718,    2717,    2722,    2723,    9052,    9067,    9068,    9064,    6065,    6073,    6076,    6075,    9114,    9115,    9120,    9119
    2064,    3099,    3100,    3105,    3104,    2717,    2716,    2721,    2722,    9055,    9070,    9071,    9067,    6063,    6071,    6074,    6073,    9115,    9116,    9121,    9120
    2065,    3100,    3101,    3106,    3105,    2716,    2715,    2720,    2721,    9058,    9073,    9074,    9070,    6061,    6069,    6072,    6071,    9116,    9117,    9122,    9121
    2066,    3101,    3066,    3065,    3106,    2715,    2711,    2712,    2720,    9059,    8967,    9075,    9073,    6059,    6054,    6070,    6069,    9117,    8966,    8964,    9122
    2067,    1396,    3102,    3107,    1395,      52,    2724,    2729,      53,    9062,    9077,    9078,    7923,    6079,    6088,    6090,    4698,    7922,    9118,    9123,    7920
    2068,    3102,    3103,    3108,    3107,    2724,    2723,    2728,    2729,    9065,    9080,    9081,    9077,    6078,    6086,    6089,    6088,    9118,    9119,    9124,    9123
    2069,    3103,    3104,    3109,    3108,    2723,    2722,    2727,    2728,    9068,    9083,    9084,    9080,    6076,    6084,    6087,    6086,    9119,    9120,    9125,    9124
    2070,    3104,    3105,    3110,    3109,    2722,    2721,    2726,    2727,    9071,    9086,    9087,    9083,    6074,    6082,    6085,    6084,    9120,    9121,    9126,    9125
    2071,    3105,    3106,    3111,    3110,    2721,    2720,    2725,    2726,    9074,    9089,    9090,    9086,    6072,    6080,    6083,    6082,    9121,    9122,    9127,    9126
    2072,    3106,    3065,    3064,    3111,    2720,    2712,    2713,    2725,    9075,    8965,    9091,    9089,    6070,    6055,    6081,    6080,    9122,    8964,    8962,    9127
    2073,    1395,    3107,    3112,    1394,      53,    2729,    2734,      54,    9078,    9093,    9094,    7921,    6090,    6099,    6101,    4699,    7920,    9123,    9128,    7918
    2074,    3107,    3108,    3113,    3112,    2729,    2728,    2733,    2734,    9081,    9096,    9097,    9093,    6089,    6097,    6100,    6099,    9123,    9124,    9129,    9128
    2075,    3108,    3109,    3114,    3113,    2728,    2727,    2732,    2733,    9084,    9099,    9100,    9096,    6087,    6095,    6098,    6097,    9124,    9125,    9130,    9129
    2076,    3109,    3110,    3115,    3114,    2727,    2726,    2731,    2732,    9087,    9102,    9103,    9099,    6085,    6093,    6096,    6095,    9125,    9126,    9131,    9130
    2077,    3110,    3111,    3116,    3115,    2726,    2725,    2730,    2731,    9090,    9105,    9106,    9102,    6083,    6091,    6094,    6093,    9126,    9127,    9132,    9131
    2078,    3111,    3064,    3063,    3116,    2725,    2713,    2714,    2730,    9091,    8963,    9107,    9105,    6081,    6056,    6092,    6091,    9127,    8962,    8960,    9132
    2079,    1394,    3112,    2946,    1305,      54,    2734,    2525,       2,    9094,    9108,    8595,    7919,    6101,    6106,    5546,    4700,    7918,    9128,    8593,    6625
    2080,    3112,    3113,    2945,    2946,    2734,    2733,    2526,    2525,    9097,    9109,    8594,    9108,    6100,    6105,    5547,    6106,    9128,    9129,    8591,    8593
    2081,    3113,    3114,    2944,    2945,    2733,    2732,    2527,    2526,    9100,    9110,    8592,    9109,    6098,    6104,    5548,    6105,    9129,    9130,    8589,    8591
    2082,    3114,    3115,    2943,    2944,    2732,    2731,    2528,    2527,    9103,    9111,    8590,    9110,    6096,    6103,    5549,    6104,    9130,    9131,    8587,    8589
    2083,    3115,    3116,    2942,    2943,    2731,    2730,    2529,    2528,    9106,    9112,    8588,    9111,    6094,    6102,    5550,    6103,    9131,    9132,    8585,    8587
    2084,    3116,    3063,    2367,    2942,    2730,    2714,    1203,    2529,    9107,    8961,    8586,    9112,    6092,    6057,    5551,    6102,    9132,    8960,    8503,    8585
********************************** N O D E S E T S **********************************
*NSET, NSET=left
    1287,    1294,    1295,    1296,    1297,    1298,
    1299,    1300,    1333,    1334,    1335,    1336,
    1337,    1373,    1377,    1378,    1379,    1380,
    1398,    1399,    1400,    1401,    1402,    1403,
    1404,    1405,    1406,    1407,    1408,    1409,
    1410,    1411,    1412,    1413,    1414,    1415,
    1416,    1417,    1418,    1419,    1420,    1421,
    1422,    1423,    1424,    1425,    1426,    1427,
    1563,    1570,    1571,    1572,    1573,    1574,
    1575,    1576,    1577,    1578,    1579,    1640,
    1641,    1642,    1643,    1644,    1645,    1646,
    1647,    1648,    1649,    1650,    1706,    1707,
    1708,    1709,    1710,    1711,    1712,    1713,
    1714,    1715,    1716,    1717,    1718,    1719,
    1720,    1721,    1722,    1723,    1724,    1725,
    1726,    1727,    1728,    1729,    1730,    1731,
    1732,    1733,    1734,    1735,    1736,    1737,
    1738,    1739,    1740,    1741,    1742,    1743,
    1744,    1745,    1746,    1747,    1748,    1749,
    1750,    1751,    1752,    1753,    1754,    1755,
    1756,    1757,    1758,    1759,    1760,    1761,
    1762,    1763,    1764,    1765,    1766,    1767,
    1768,    1769,    1770,    1771,    6294,    6295,
    6296,    6297,    6298,    6299,    6300,    6301,
    6302,    6303,    6304,    6454,    6455,    6456,
    6457,    6458,    6459,    6460,    6525,    6526,
    6527,    6528,    6529,    6530,    6531,    6532,
    6533,    6534,    6535,    6657,    6658,    6659,
    6660,    6661,    6662,    6663,    6664,    6665,
    6666,    6667,    6668,    6669,    6670,    6671,
    6672,    6673,    6674,    6675,    6676,    6677,
    6678,    6679,    6680,    6681,    6682,    6683,
    6684,    6685,    6686,    6687,    6688,    6689,
    6690,    6691,    6692,    6693,    6694,    6695,
    6696,    6697,    6698,    6699,    6700,    6701,
    6702,    6703,    6704,    6705,    6706,    6707,
    6708,    6709,    6710,    6711,    6712,    6713,
    6714,    6715,    6716,    6717,    6718,    6719,
    6720,    6721,    6722,    6723,    6724,    6725,
    6726,    6727,    6728,    6729,    6730,    6731,
    6732,    6733,    6734,    6735,    6736,    6737,
    6738,    6739,    6740,    6741,    6742,    6743,
    6744,    6745,    6746,    6747,    6748,    6749,
    6750,    6751,    6752,    6753,    6754,    6755,
    6756,    6757,    6758,    6759,    6760,    6761,
    6762,    6763,    6764,    6765,    6766,    6767,
    6768,    6769,    6770,    6771,    6772,    6773,
    6774,    6775,    6776,    6777,    6778,    6779,
    6780,    6781,    6782,    6783,    6784,    6785,
    6786,    6787,    6788,    6789,    6790,    6791,
    6792,    6793,    6794,    6795,    6796,    6797,
    6798,    6799,    7801,    7802,    7803,    7804,
    7805,    7880,    7881,    7882,    7883,    7884,
    7931,    7932,    7933,    7934,    7935,    7936,
    7937,    7938,    7939,    7940,    7941,    7942,
    7943,    7944,    7945,    7946,    7947,    7948,
    7949,    7950,    7951,    7952,    7953,    7954,
    7955,    7956,    7957,    7958,    7959,    7960,
    7961,    7962,    7963,    7964,    7965,    7966,
    7967,    7968,    7969,    7970,    7971,    7972,
    7973,    7974,    7975,    7976,    7977,    7978,
    7979,    7980,    7981,    7982,    7983,    7984,
    7985,    7986,    7987,    7988,    7989,    7990,
    7991,    7992,    7993,    7994,    7995,
*NSET, NSET=right
       8,      12,      13,      14,      15,      16,
      17,      18,      85,      86,      87,      88,
      89,     105,     106,     107,     108,     109,
     110,     111,     112,     113,     114,     115,
     116,     117,     118,     119,     120,     121,
     122,     123,     124,     125,     126,     127,
     128,     129,     130,     131,     132,     133,
     134,     135,     136,     137,     138,     139,
     372,     376,     377,     378,     379,     380,
     381,     382,     383,     384,     385,     416,
     417,     418,     419,     420,     421,     422,
     423,     424,     425,     426,     493,     494,
     495,     496,     497,     498,     499,     500,
     501,     502,     503,     504,     505,     506,
     507,     508,     509,     510,     511,     512,
     513,     514,     515,     516,     517,     518,
     519,     520,     521,     522,     523,     524,
     525,     526,     527,     528,     529,     530,
     531,     532,     533,     534,     535,     536,
     537,     538,     539,     540,     541,     542,
     543,     544,     545,     546,     547,     548,
     549,     550,     551,     552,     553,     554,
     555,     556,     557,     558,    3258,    3259,
    3260,    3261,    3262,    3263,    3264,    3380,
    3381,    3382,    3383,    3384,    3385,    3386,
    3387,    3388,    3389,    3390,    3471,    3472,
    3473,    3474,    3475,    3476,    3477,    3538,
    3539,    3540,    3541,    3542,    3543,    3544,
    3545,    3546,    3547,    3548,    3685,    3686,
    3687,    3688,    3689,    3690,    3691,    3692,
    3693,    3694,    3695,    3696,    3697,    3698,
    3699,    3700,    3701,    3702,    3703,    3704,
    3705,    3706,    3707,    3708,    3709,    3710,
    3711,    3712,    3713,    3714,    3715,    3716,
    3717,    3718,    3719,    3720,    3721,    3722,
    3723,    3724,    3725,    3726,    3727,    3728,
    3729,    3730,    3731,    3732,    3733,    3734,
    3735,    3736,    3737,    3738,    3739,    3740,
    3741,    3742,    3743,    3744,    3745,    3746,
    3747,    3748,    3749,    3750,    3751,    3752,
    3753,    3754,    3755,    3756,    3757,    3758,
    3759,    3760,    3761,    3762,    3763,    3764,
    3765,    3766,    3767,    3768,    3769,    3770,
    3771,    3772,    3773,    3774,    3775,    3776,
    3777,    3778,    3779,    3780,    3781,    3782,
    3783,    3784,    3785,    3786,    3787,    3788,
    3789,    3790,    3791,    3792,    3793,    3794,
    3795,    3796,    3797,    3798,    3799,    3800,
    3801,    3802,    3803,    3804,    3805,    3806,
    3807,    3808,    3809,    3810,    3811,    3812,
    3813,    3814,    3815,    3816,    3817,    3818,
    3819,    3820,    4747,    4748,    4749,    4750,
    4751,    4752,    4753,    4839,    4840,    4841,
    4842,    4843,    4875,    4876,    4877,    4878,
    4879,    4880,    4881,    4882,    4883,    4884,
    4885,    4886,    4887,    4888,    4889,    4890,
    4891,    4892,    4893,    4894,    4895,    4896,
    4897,    4898,    4899,    4900,    4901,    4902,
    4903,    4904,    4905,    4906,    4907,    4908,
    4909,    4910,    4911,    4912,    4913,    4914,
    4915,    4916,    4917,    4918,    4919,    4920,
    4921,    4922,    4923,    4924,    4925,    4926,
    4927,    4928,    4929,    4930,    4931,    4932,
    4933,    4934,    4935,    4936,    4937,
*NSET, NSET=back
       1,      12,      19,      20,      21,      22,
      23,      24,      55,      59,      60,      61,
      62,     105,     106,     107,     108,     109,
     140,     141,     142,     143,     144,     145,
     146,     147,     148,     149,     150,     151,
     152,     153,     154,     155,     156,     157,
     158,     159,     160,     161,     162,     163,
     164,     165,     166,     167,     168,     169,
     296,     310,     311,     312,     313,     314,
     315,     316,     317,     318,     319,     416,
     417,     418,     419,     420,     421,     422,
     423,     424,     425,     426,     427,     428,
     429,     430,     431,     432,     433,     434,
     435,     436,     437,     438,     439,     440,
     441,     442,     443,     444,     445,     446,
     447,     448,     449,     450,     451,     452,
     453,     454,     455,     456,     457,     458,
     459,     460,     461,     462,     463,     464,
     465,     466,     467,     468,     469,     470,
     471,     472,     473,     474,     475,     476,
     477,     478,     479,     480,     481,     482,
     483,     484,     485,     486,     487,     488,
     489,     490,     491,     492,    1287,    1288,
    1289,    1290,    1291,    1292,    1293,    1333,
    1334,    1335,    1336,    1337,    1338,    1339,
    1340,    1341,    1342,    1343,    1344,    1345,
    1346,    1347,    1348,    1349,    1350,    1351,
    1352,    1353,    1354,    1355,    1356,    1357,
    1358,    1359,    1360,    1361,    1362,    1363,
    1364,    1365,    1366,    1367,    1563,    1564,
    1565,    1566,    1567,    1568,    1569,    1570,
    1571,    1572,    1573,    1574,    1575,    1576,
    1577,    1578,    1579,    1580,    1581,    1582,
    1583,    1584,    1585,    1586,    1587,    1588,
    1589,    1590,    1591,    1592,    1593,    1594,
    1595,    1596,    1597,    1598,    1599,    1600,
    1601,    1602,    1603,    1604,    1605,    1606,
    1607,    1608,    1609,    1610,    1611,    1612,
    1613,    1614,    1615,    1616,    1617,    1618,
    1619,    1620,    1621,    1622,    1623,    1624,
    1625,    1626,    1627,    1628,    1629,    1630,
    1631,    1632,    1633,    1634,    1635,    1636,
    1637,    1638,    1639,    3168,    3169,    3170,
    3171,    3172,    3173,    3174,    3175,    3176,
    3177,    3178,    3265,    3266,    3267,    3268,
    3269,    3270,    3271,    3464,    3465,    3466,
    3467,    3468,    3469,    3470,    3538,    3539,
    3540,    3541,    3542,    3543,    3544,    3545,
    3546,    3547,    3548,    3549,    3550,    3551,
    3552,    3553,    3554,    3555,    3556,    3557,
    3558,    3559,    3560,    3561,    3562,    3563,
    3564,    3565,    3566,    3567,    3568,    3569,
    3570,    3571,    3572,    3573,    3574,    3575,
    3576,    3577,    3578,    3579,    3580,    3581,
    3582,    3583,    3584,    3585,    3586,    3587,
    3588,    3589,    3590,    3591,    3592,    3593,
    3594,    3595,    3596,    3597,    3598,    3599,
    3600,    3601,    3602,    3603,    3604,    3605,
    3606,    3607,    3608,    3609,    3610,    3611,
    3612,    3613,    3614,    3615,    3616,    3617,
    3618,    3619,    3620,    3621,    3622,    3623,
    3624,    3625,    3626,    3627,    3628,    3629,
    3630,    3631,    3632,    3633,    3634,    3635,
    3636,    3637,    3638,    3639,    3640,    3641,
    3642,    3643,    3644,    3645,    3646,    3647,
    3648,    3649,    3650,    3651,    3652,    3653,
    3654,    3655,    3656,    3657,    3658,    3659,
    3660,    3661,    3662,    3663,    3664,    3665,
    3666,    3667,    3668,    3669,    3670,    3671,
    3672,    3673,    3674,    3675,    3676,    3677,
    3678,    3679,    3680,    3681,    3682,    3683,
    3684,    4705,    4706,    4707,    4708,    4709,
    4754,    4755,    4756,    4757,    4758,    4759,
    4760,    4875,    4876,    4877,    4878,    4879,
    4938,    4939,    4940,    4941,    4942,    4943,
    4944,    4945,    4946,    4947,    4948,    4949,
    4950,    4951,    4952,    4953,    4954,    4955,
    4956,    4957,    4958,    4959,    4960,    4961,
    4962,    4963,    4964,    4965,    4966,    4967,
    4968,    4969,    4970,    4971,    4972,    4973,
    4974,    4975,    4976,    4977,    4978,    4979,
    4980,    4981,    4982,    4983,    4984,    4985,
    4986,    4987,    4988,    4989,    4990,    4991,
    4992,    4993,    4994,    4995,    6287,    6288,
    6289,    6290,    6291,    6292,    6293,    6294,
    6295,    6296,    6297,    6298,    6299,    6300,
    6301,    6302,    6303,    6304,    6305,    6306,
    6307,    6308,    6309,    6310,    6311,    6312,
    6313,    6314,    6315,    6316,    6317,    6318,
    6319,    6320,    6321,    6322,    6323,    6324,
    6325,    6326,    6327,    6328,    6329,    6330,
    6331,    6332,    6333,    6334,    6335,    6336,
    6337,    6338,    6339,    6340,    6341,    6342,
    6343,    6344,    6345,    6346,    6347,    6348,
    6349,    6350,    6351,    6352,    6353,    6354,
    6355,    6356,    6357,    6358,    6359,    6360,
    6361,    6362,    6363,    6364,    6365,    6366,
    6367,    6368,    6369,    6370,    6371,    6372,
    6373,    6374,    6375,    6376,    6377,    6378,
    6379,    6380,    6381,    6382,    6383,    6384,
    6385,    6386,    6387,    6388,    6389,    6390,
    6391,    6392,    6393,    6394,    6395,    6396,
    6397,    6398,    6399,    6400,    6401,    6402,
    6403,    6404,    6405,    6406,    6407,    6408,
    6409,    6410,    6411,    6412,    6413,    6414,
    6415,    6416,    6417,    6418,    6419,    6420,
    6421,    6422,    6423,    6424,    6425,    6426,
    6427,    6428,    6429,    6430,    6431,    6432,
    6433,    6434,    6435,    6436,    6437,    6438,
    6439,    6440,    6441,    6442,    6443,    6444,
    6445,    6446,    6447,    7801,    7802,    7803,
    7804,    7805,    7806,    7807,    7808,    7809,
    7810,    7811,    7812,    7813,    7814,    7815,
    7816,    7817,    7818,    7819,    7820,    7821,
    7822,    7823,    7824,    7825,    7826,    7827,
    7828,    7829,    7830,    7831,    7832,    7833,
    7834,    7835,    7836,    7837,    7838,    7839,
    7840,    7841,    7842,    7843,    7844,    7845,
    7846,    7847,    7848,    7849,    7850,    7851,
    7852,    7853,    7854,    7855,    7856,    7857,
    7858,    7859,    7860,    7861,    7862,    7863,
    7864,    7865,    7866,    7867,    7868,    7869,
    7870,
*NSET, NSET=bottom
     295,     296,     297,     298,     299,     350,
     351,     372,     373,     374,     375,     416,
     427,     428,     429,     430,     431,     432,
     493,     494,     495,     496,     497,     498,
     809,     810,     811,     812,     813,     814,
     815,     816,     817,     818,     819,     820,
     821,     822,     823,     824,     825,     826,
     827,     828,     829,     830,     831,     832,
     833,    1210,    1221,    1232,    1243,    1254,
    1265,    1286,    1563,    1564,    1565,    1566,
    1567,    1568,    1569,    1640,    1651,    1652,
    1653,    1654,    1695,    1706,    1707,    1708,
    1709,    1710,    1711,    2042,    2043,    2044,
    2045,    2046,    2047,    2048,    2049,    2050,
    2051,    2052,    2053,    2054,    2055,    2056,
    2057,    2058,    2059,    2060,    2061,    2062,
    2063,    2064,    2065,    2066,    2067,    2068,
    2341,    2342,    2343,    2344,    2530,    2531,
    2532,    2533,    2534,    2585,    2586,    2587,
    2588,    2589,    2590,    2591,    2592,    2593,
    2594,    2947,    2948,    2949,    2950,    2951,
    3002,    3003,    3004,    3005,    3006,    3149,
    3150,    3151,    3152,    3332,    3333,    3376,
    3377,    3378,    3379,    3464,    3465,    3466,
    3467,    3468,    3469,    3470,    3471,    3472,
    3473,    3474,    3475,    3476,    3477,    3478,
    3479,    3480,    3481,    3482,    3483,    3484,
    3485,    3486,    3487,    3488,    3489,    3490,
    3491,    3492,    3493,    3494,    3495,    3496,
    3497,    3498,    3499,    3500,    3501,    3502,
    3503,    3504,    3505,    3506,    3507,    3508,
    3509,    3510,    3511,    3512,    3513,    3514,
    3515,    3516,    3517,    3518,    3519,    3520,
    3521,    3522,    3523,    3524,    3525,    3526,
    3527,    3528,    3529,    3530,    3531,    3532,
    3533,    3534,    3535,    3536,    3537,    5385,
    5386,    5431,    5432,    5469,    5470,    5502,
    5503,    5504,    5552,    5553,    5554,    5555,
    5556,    5557,    5673,    5674,    5675,    5676,
    5677,    5678,    5679,    5680,    5681,    5682,
    5683,    5684,    5685,    5686,    5687,    5688,
    5689,    5690,    5691,    5692,    5693,    5694,
    6287,    6288,    6289,    6290,    6291,    6292,
    6293,    6448,    6449,    6450,    6451,    6452,
    6453,    6454,    6455,    6456,    6457,    6458,
    6459,    6460,    6461,    6462,    6463,    6464,
    6465,    6466,    6467,    6468,    6469,    6470,
    6471,    6472,    6473,    6474,    6475,    6476,
    6477,    6478,    6479,    6480,    6481,    6482,
    6483,    6484,    6485,    6486,    6487,    6488,
    6489,    6490,    6491,    6492,    6493,    6494,
    6495,    6496,    6497,    6498,    6499,    6500,
    6501,    6502,    6503,    6504,    6505,    6506,
    6507,    6508,    6509,    6510,    6511,    6512,
    6513,    6514,    6515,    6516,    6517,    6518,
    6519,    6520,    6521,    6522,    6523,    6524,
    8451,    8452,    8453,    8454,    8455,    8456,
    8457,    8601,    8602,    8603,    8604,    8605,
    8606,    8722,    8723,    8724,    8725,    8726,
    8727,    8728,    8729,    8730,    8731,    8732,
    8733,    8734,    8735,    8736,    8737,
*NSET, NSET=z_symm_concrete
       6,       8,       9,      10,      11,      75,
      76,      77,      78,      79,      85,      86,
      87,      88,      89,      90,      91,      92,
      93,      94,      95,      96,      97,      98,
      99,     100,     101,     102,     103,     104,
     350,     352,     353,     354,     355,     356,
     357,     358,     359,     360,     361,     372,
     373,     374,     375,     376,     377,     378,
     379,     380,     381,     382,     383,     384,
     385,     386,     387,     388,     389,     390,
     391,     392,     393,     394,     395,     396,
     397,     398,     399,     400,     401,     402,
     403,     404,     405,     406,     407,     408,
     409,     410,     411,     412,     413,     414,
     415,    1204,    1206,    1207,    1210,    1211,
    1212,    1213,    1214,    1215,    1216,    1217,
    1218,    1219,    1220,    1243,    1244,    1245,
    1246,    1247,    1248,    1249,    1250,    1251,
    1252,    1253,    1265,    1266,    1267,    1268,
    1269,    1270,    1271,    1272,    1273,    1274,
    1275,    1294,    1301,    1302,    1303,    1304,
    1368,    1369,    1370,    1371,    1372,    1373,
    1374,    1375,    1376,    1377,    1378,    1379,
    1380,    1381,    1382,    1383,    1384,    1385,
    1386,    1387,    1388,    1389,    1390,    1391,
    1392,    1640,    1641,    1642,    1643,    1644,
    1645,    1646,    1647,    1648,    1649,    1650,
    1651,    1652,    1653,    1654,    1655,    1656,
    1657,    1658,    1659,    1660,    1661,    1662,
    1663,    1664,    1665,    1666,    1667,    1668,
    1669,    1670,    1671,    1672,    1673,    1674,
    1675,    1676,    1677,    1678,    1679,    1680,
    1681,    1682,    1683,    1684,    1685,    1686,
    1687,    1688,    1689,    1690,    1691,    1692,
    1693,    1694,    2341,    2342,    2345,    2346,
    2347,    2348,    2349,    2350,    2351,    2352,
    2353,    2354,    2355,    2356,    2357,    2358,
    2359,    2360,    2361,    2362,    2363,    2364,
    2365,    2366,    2585,    2586,    2587,    2588,
    2589,    2595,    2596,    2597,    2598,    2599,
    2600,    2601,    2602,    2603,    2604,    2605,
    2606,    2607,    2608,    2609,    2610,    2611,
    2612,    2613,    2614,    2615,    2616,    2617,
    2618,    2619,    2620,    2621,    2622,    2623,
    2624,    2625,    2626,    2627,    2628,    2629,
    2630,    2631,    2632,    2633,    2634,    2635,
    2636,    2637,    2638,    2639,    2640,    2641,
    2642,    2643,    2644,    2645,    2646,    2647,
    2648,    2649,    2735,    2736,    2737,    2738,
    2739,    2740,    2741,    2742,    2743,    2744,
    2745,    2746,    2747,    2748,    2749,    2750,
    2751,    2752,    2753,    2754,    2755,    2756,
    2757,    2758,    2759,    2760,    2761,    2762,
    2763,    2764,    2937,    2938,    2939,    2940,
    2941,    2947,    2948,    2949,    2950,    2951,
    2952,    2953,    2954,    2955,    2956,    2957,
    2958,    2959,    2960,    2961,    2962,    2963,
    2964,    2965,    2966,    2967,    2968,    2969,
    2970,    2971,    2972,    2973,    2974,    2975,
    2976,    2977,    2978,    2979,    2980,    2981,
    2982,    2983,    2984,    2985,    2986,    2987,
    2988,    2989,    2990,    2991,    2992,    2993,
    2994,    2995,    2996,    2997,    2998,    2999,
    3000,    3001,    3057,    3059,    3060,    3061,
    3062,    3067,    3068,    3069,    3070,    3071,
    3077,    3078,    3079,    3080,    3081,    3082,
    3083,    3084,    3085,    3086,    3087,    3088,
    3089,    3090,    3091,    3092,    3093,    3094,
    3095,    3096,    3254,    3255,    3256,    3257,
    3334,    3335,    3336,    3337,    3338,    3339,
    3340,    3341,    3342,    3343,    3344,    3376,
    3377,    3378,    3379,    3380,    3381,    3382,
    3383,    3384,    3385,    3386,    3387,    3388,
    3389,    3390,    3391,    3392,    3393,    3394,
    3395,    3396,    3397,    3398,    3399,    3400,
    3401,    3402,    3403,    3404,    3405,    3406,
    3407,    3408,    3409,    3410,    3411,    3412,
    3413,    3414,    3415,    3416,    3417,    3418,
    3419,    3420,    3421,    3422,    3423,    3424,
    3425,    3426,    3427,    3428,    3429,    3430,
    3431,    3432,    3433,    3434,    3435,    3436,
    3437,    3438,    3439,    3440,    3441,    3442,
    3443,    3444,    3445,    3446,    3447,    3448,
    3449,    3450,    3451,    3452,    3453,    3454,
    3455,    3456,    3457,    3458,    3459,    3460,
    3461,    3462,    3463,    4743,    4744,    4745,
    4746,    4821,    4822,    4823,    4824,    4825,
    4839,    4840,    4841,    4842,    4843,    4844,
    4845,    4846,    4847,    4848,    4849,    4850,
    4851,    4852,    4853,    4854,    4855,    4856,
    4857,    4858,    4859,    4860,    4861,    4862,
    4863,    4864,    4865,    4866,    4867,    4868,
    4869,    4870,    4871,    4872,    4873,    4874,
    5361,    5362,    5363,    5364,    5365,    5366,
    5367,    5368,    5369,    5370,    5371,    5420,
    5421,    5422,    5423,    5424,    5425,    5426,
    5427,    5428,    5429,    5430,    5464,    5465,
    5469,    5470,    5471,    5472,    5473,    5474,
    5475,    5476,    5477,    5478,    5479,    5480,
    5481,    5482,    5483,    5484,    5485,    5486,
    5487,    5488,    5489,    5490,    5491,    5492,
    5493,    5494,    5495,    5496,    5497,    5498,
    5499,    5500,    5501,    5673,    5674,    5675,
    5676,    5677,    5678,    5695,    5696,    5697,
    5698,    5699,    5700,    5701,    5702,    5703,
    5704,    5705,    5706,    5707,    5708,    5709,
    5710,    5711,    5712,    5713,    5714,    5715,
    5716,    5717,    5718,    5719,    5720,    5721,
    5722,    5723,    5724,    5725,    5726,    5727,
    5728,    5729,    5730,    5731,    5732,    5733,
    5734,    5735,    5736,    5737,    5738,    5739,
    5740,    5741,    5742,    5743,    5744,    5745,
    5746,    5747,    5748,    5749,    5750,    5751,
    5752,    5753,    5754,    5755,    5756,    5757,
    5758,    5759,    5760,    5761,    5762,    5763,
    5764,    5765,    5766,    5767,    5768,    5769,
    5770,    5771,    5772,    5773,    5774,    5775,
    5776,    5777,    5778,    5779,    5780,    5781,
    5782,    5783,    5784,    5785,    5786,    5787,
    5788,    5789,    5790,    5791,    5792,    5793,
    5794,    5795,    5796,    5797,    5798,    5799,
    5800,    5801,    5802,    5803,    5804,    5805,
    5806,    5807,    5808,    5809,    5810,    5811,
    5812,    5813,    5814,    5815,    6107,    6108,
    6109,    6110,    6111,    6112,    6113,    6114,
    6115,    6116,    6117,    6118,    6119,    6120,
    6121,    6122,    6123,    6124,    6125,    6126,
    6127,    6128,    6129,    6130,    6131,    6132,
    6133,    6134,    6135,    6136,    6137,    6138,
    6139,    6140,    6141,    6142,    6143,    6144,
    6145,    6146,    6147,    6148,    6149,    6150,
    6151,    6152,    6153,    6154,    6155,    6156,
    6157,    6158,    6159,    6160,    6161,    6162,
    6163,    6164,    6165,    6166,    6450,    6451,
    6452,    6453,    6525,    6526,    6527,    6528,
    6529,    6530,    6531,    6532,    6533,    6534,
    6535,    6536,    6537,    6538,    6539,    6540,
    6541,    6542,    6543,    6544,    6545,    6546,
    6547,    6548,    6549,    6550,    6551,    6552,
    6553,    6554,    6555,    6556,    6557,    6558,
    6559,    6560,    6561,    6562,    6563,    6564,
    6565,    6566,    6567,    6568,    6569,    6570,
    6571,    6572,    6573,    6574,    6575,    6576,
    6577,    6578,    6579,    6580,    6581,    6582,
    6583,    6584,    6585,    6586,    6587,    6588,
    6589,    6590,    6591,    6592,    6593,    6594,
    6595,    6596,    6597,    6598,    6599,    6600,
    6601,    6602,    6603,    6604,    6605,    6606,
    6607,    6608,    6609,    6610,    6611,    6612,
    6613,    6614,    6615,    6616,    6617,    6618,
    6619,    6620,    6621,    6622,    6623,    7871,
    7872,    7873,    7874,    7875,    7876,    7877,
    7878,    7879,    7880,    7881,    7882,    7883,
    7884,    7885,    7886,    7887,    7888,    7889,
    7890,    7891,    7892,    7893,    7894,    7895,
    7896,    7897,    7898,    7899,    7900,    7901,
    7902,    7903,    7904,    7905,    7906,    7907,
    7908,    7909,    7910,    7911,    7912,    7913,
    7914,    7915,    8451,    8452,    8458,    8459,
    8460,    8461,    8462,    8463,    8464,    8465,
    8466,    8467,    8468,    8469,    8470,    8471,
    8472,    8473,    8474,    8475,    8476,    8477,
    8478,    8479,    8480,    8481,    8482,    8483,
    8484,    8485,    8486,    8487,    8488,    8489,
    8490,    8491,    8492,    8493,    8494,    8495,
    8496,    8497,    8498,    8499,    8500,    8501,
    8579,    8580,    8581,    8582,    8583,    8584,
    8601,    8602,    8603,    8604,    8605,    8606,
    8607,    8608,    8609,    8610,    8611,    8612,
    8613,    8614,    8615,    8616,    8617,    8618,
    8619,    8620,    8621,    8622,    8623,    8624,
    8625,    8626,    8627,    8628,    8629,    8630,
    8631,    8632,    8633,    8634,    8635,    8636,
    8637,    8638,    8639,    8640,    8641,    8642,
    8643,    8644,    8645,    8646,    8647,    8648,
    8649,    8650,    8651,    8652,    8653,    8654,
    8655,    8656,    8657,    8658,    8659,    8660,
    8661,    8662,    8663,    8664,    8665,    8666,
    8667,    8668,    8669,    8670,    8671,    8672,
    8673,    8674,    8675,    8676,    8677,    8678,
    8679,    8680,    8681,    8682,    8683,    8684,
    8685,    8686,    8687,    8688,    8689,    8690,
    8691,    8692,    8693,    8694,    8695,    8696,
    8697,    8698,    8699,    8700,    8701,    8702,
    8703,    8704,    8705,    8706,    8707,    8708,
    8709,    8710,    8711,    8712,    8713,    8714,
    8715,    8716,    8717,    8718,    8719,    8720,
    8721,    8955,    8956,    8957,    8958,    8959,
    8973,    8974,    8975,    8976,    8977,    8978,
    8995,    8996,    8997,    8998,    8999,    9000,
    9001,    9002,    9003,    9004,    9005,    9006,
    9007,    9008,    9009,    9010,    9011,    9012,
    9013,    9014,    9015,    9016,    9017,    9018,
    9019,    9020,    9021,    9022,    9023,    9024,
    9025,    9026,    9027,    9028,    9029,    9030,
    9031,    9032,    9033,    9034,    9035,    9036,
    9037,    9038,    9039,    9040,    9041,    9042,
    9043,
********************************** S I D E S E T S **********************************
*ELSET, ELSET=concrete_top_S2
     991,     992,     993,     994,     995,     996,     997,     998,     999,    1000,
    1001,    1002,    1003,    1004,    1005,    1006,    1007,    1008,    1009,    1010,
    1011,    1012,    1013,    1014,    1015,    1016,    1017,    1018,    1019,    1020,
    1021,    1022,    1023,    1024,    1025,    1026,    1822,    1823,    1824,    1825,
    1826,    1827,    1828,    1829,    1830,    1831,    1832,    1833,    1834,    1835,
    1836,    1837,    1838,    1839,    1840,    1841,    1842,    1843,    1844,    1845,
    1846,    1847,    1848,    1849,    1850,    1851,    1852,    1853,    1854,    1855,
    1856,    1857,    1858,    1859
*ELSET, ELSET=concrete_top_S3
    1192,    1193,    1202,    1203,    1212,    1213,    1222,    1223,    1232,    1233,
    1242,    1243,    2025,    2026,    2027,    2028,    2029,    2030,    2055,    2056,
    2057,    2058,    2059,    2060
*SURFACE, NAME=concrete_top, TYPE=ELEMENT
concrete_top_S2, S2
concrete_top_S3, S3
*ELSET, ELSET=concrete_to_mortar_S1
    1192,    1193,    1194,    1195,    1196,    1197,    1198,    1199,    1200,    1201
*ELSET, ELSET=concrete_to_mortar_S4
    2030,    2036,    2042,    2048,    2054,    2060,    2066,    2072,    2078,    2084
*SURFACE, NAME=concrete_to_mortar, TYPE=ELEMENT
concrete_to_mortar_S1, S1
concrete_to_mortar_S4, S4
