********************************** N O D E S **********************************
*NODE, NSET=ALLNODES
  100834, 0.000000e+00, 2.380000e+01, -1.000000e+01
  100835, 0.000000e+00, 2.380000e+01, 0.000000e+00
  100836, 0.000000e+00, 2.380000e+01, -5.000000e+00
  100837, 1.000000e+01, 2.380000e+01, 0.000000e+00
  100838, 5.000000e+00, 2.380000e+01, 0.000000e+00
  100839, 7.071068e+00, 2.380000e+01, -7.071068e+00
  100840, 4.023689e+00, 2.380000e+01, -4.023689e+00
  100841, 0.000000e+00, 4.180000e+01, -1.000000e+01
  100842, 0.000000e+00, 2.830000e+01, -1.000000e+01
  100843, 0.000000e+00, 3.280000e+01, -1.000000e+01
  100844, 0.000000e+00, 3.730000e+01, -1.000000e+01
  100845, 0.000000e+00, 4.180000e+01, 0.000000e+00
  100846, 0.000000e+00, 3.730000e+01, 0.000000e+00
  100847, 0.000000e+00, 3.280000e+01, 0.000000e+00
  100848, 0.000000e+00, 2.830000e+01, 0.000000e+00
  100849, 0.000000e+00, 4.180000e+01, -5.000000e+00
  100850, 0.000000e+00, 3.730000e+01, -5.000000e+00
  100851, 0.000000e+00, 3.280000e+01, -5.000000e+00
  100852, 0.000000e+00, 2.830000e+01, -5.000000e+00
  100853, 1.000000e+01, 4.180000e+01, -3.729050e-15
  100854, 1.000000e+01, 2.830000e+01, 2.755455e-16
  100855, 1.000000e+01, 3.280000e+01, -2.175410e-31
  100856, 1.000000e+01, 3.730000e+01, -2.755455e-16
  100857, 5.000000e+00, 4.180000e+01, 0.000000e+00
  100858, 5.000000e+00, 3.730000e+01, 0.000000e+00
  100859, 5.000000e+00, 3.280000e+01, 0.000000e+00
  100860, 5.000000e+00, 2.830000e+01, 0.000000e+00
  100861, 7.071068e+00, 4.180000e+01, -7.071068e+00
  100862, 7.071068e+00, 2.830000e+01, -7.071068e+00
  100863, 7.071068e+00, 3.280000e+01, -7.071068e+00
  100864, 7.071068e+00, 3.730000e+01, -7.071068e+00
  100865, 4.023689e+00, 2.830000e+01, -4.023689e+00
  100866, 4.023689e+00, 3.280000e+01, -4.023689e+00
  100867, 4.023689e+00, 3.730000e+01, -4.023689e+00
  100868, 4.023689e+00, 4.180000e+01, -4.023689e+00
  100869, 0.000000e+00, 2.000000e+01, -1.000000e+01
  100870, 0.000000e+00, 2.000000e+01, 0.000000e+00
  100871, 0.000000e+00, 2.000000e+01, -5.000000e+00
  100872, 1.000000e+01, 2.000000e+01, 0.000000e+00
  100873, 5.000000e+00, 2.000000e+01, 0.000000e+00
  100874, 7.071068e+00, 2.000000e+01, -7.071068e+00
  100875, 4.023689e+00, 2.000000e+01, -4.023689e+00
  100876, 0.000000e+00, 0.000000e+00, -1.000000e+01
  100877, 0.000000e+00, 5.000000e+00, -1.000000e+01
  100878, 0.000000e+00, 1.000000e+01, -1.000000e+01
  100879, 0.000000e+00, 1.500000e+01, -1.000000e+01
  100880, 0.000000e+00, 0.000000e+00, 0.000000e+00
  100881, 0.000000e+00, 0.000000e+00, -5.000000e+00
  100882, 0.000000e+00, 1.500000e+01, 0.000000e+00
  100883, 0.000000e+00, 1.000000e+01, 0.000000e+00
  100884, 0.000000e+00, 5.000000e+00, 0.000000e+00
  100885, 0.000000e+00, 1.500000e+01, -5.000000e+00
  100886, 0.000000e+00, 1.000000e+01, -5.000000e+00
  100887, 0.000000e+00, 5.000000e+00, -5.000000e+00
  100888, 1.000000e+01, 0.000000e+00, 0.000000e+00
  100889, 5.000000e+00, 0.000000e+00, 0.000000e+00
  100890, 1.000000e+01, 5.000000e+00, 3.061617e-16
  100891, 1.000000e+01, 1.000000e+01, 0.000000e+00
  100892, 1.000000e+01, 1.500000e+01, -3.061617e-16
  100893, 5.000000e+00, 1.500000e+01, 0.000000e+00
  100894, 5.000000e+00, 1.000000e+01, 0.000000e+00
  100895, 5.000000e+00, 5.000000e+00, 0.000000e+00
  100896, 7.071068e+00, 0.000000e+00, -7.071068e+00
  100897, 7.071068e+00, 5.000000e+00, -7.071068e+00
  100898, 7.071068e+00, 1.000000e+01, -7.071068e+00
  100899, 7.071068e+00, 1.500000e+01, -7.071068e+00
  100900, 4.023689e+00, 1.500000e+01, -4.023689e+00
  100901, 4.023689e+00, 1.000000e+01, -4.023689e+00
  100902, 4.023689e+00, 5.000000e+00, -4.023689e+00
  100903, 4.023689e+00, 0.000000e+00, -4.023689e+00
  100904, 0.000000e+00, -8.000000e+01, -1.000000e+01
  100905, 0.000000e+00, -7.200000e+01, -1.000000e+01
  100906, 0.000000e+00, -6.400000e+01, -1.000000e+01
  100907, 0.000000e+00, -5.600000e+01, -1.000000e+01
  100908, 0.000000e+00, -4.800000e+01, -1.000000e+01
  100909, 0.000000e+00, -4.000000e+01, -1.000000e+01
  100910, 0.000000e+00, -3.200000e+01, -1.000000e+01
  100911, 0.000000e+00, -2.400000e+01, -1.000000e+01
  100912, 0.000000e+00, -1.600000e+01, -1.000000e+01
  100913, 0.000000e+00, -8.000000e+00, -1.000000e+01
  100914, 0.000000e+00, -8.000000e+01, 0.000000e+00
  100915, 0.000000e+00, -8.000000e+01, -5.000000e+00
  100916, 0.000000e+00, -8.000000e+00, 0.000000e+00
  100917, 0.000000e+00, -1.600000e+01, 0.000000e+00
  100918, 0.000000e+00, -2.400000e+01, 0.000000e+00
  100919, 0.000000e+00, -3.200000e+01, 0.000000e+00
  100920, 0.000000e+00, -4.000000e+01, 0.000000e+00
  100921, 0.000000e+00, -4.800000e+01, 0.000000e+00
  100922, 0.000000e+00, -5.600000e+01, 0.000000e+00
  100923, 0.000000e+00, -6.400000e+01, 0.000000e+00
  100924, 0.000000e+00, -7.200000e+01, 0.000000e+00
  100925, 0.000000e+00, -8.000000e+00, -5.000000e+00
  100926, 0.000000e+00, -1.600000e+01, -5.000000e+00
  100927, 0.000000e+00, -2.400000e+01, -5.000000e+00
  100928, 0.000000e+00, -3.200000e+01, -5.000000e+00
  100929, 0.000000e+00, -4.000000e+01, -5.000000e+00
  100930, 0.000000e+00, -4.800000e+01, -5.000000e+00
  100931, 0.000000e+00, -5.600000e+01, -5.000000e+00
  100932, 0.000000e+00, -6.400000e+01, -5.000000e+00
  100933, 0.000000e+00, -7.200000e+01, -5.000000e+00
  100934, 1.000000e+01, -8.000000e+01, 3.729050e-15
  100935, 5.000000e+00, -8.000000e+01, 0.000000e+00
  100936, 1.000000e+01, -7.200000e+01, 3.239191e-15
  100937, 1.000000e+01, -6.400000e+01, 2.749332e-15
  100938, 1.000000e+01, -5.600000e+01, 2.259473e-15
  100939, 1.000000e+01, -4.800000e+01, 1.769615e-15
  100940, 1.000000e+01, -4.000000e+01, 1.279756e-15
  100941, 1.000000e+01, -3.200000e+01, 7.898972e-16
  100942, 1.000000e+01, -2.400000e+01, 3.000385e-16
  100943, 1.000000e+01, -1.600000e+01, -1.898203e-16
  100944, 1.000000e+01, -8.000000e+00, -6.796790e-16
  100945, 5.000000e+00, -8.000000e+00, 0.000000e+00
  100946, 5.000000e+00, -1.600000e+01, 0.000000e+00
  100947, 5.000000e+00, -2.400000e+01, 0.000000e+00
  100948, 5.000000e+00, -3.200000e+01, 0.000000e+00
  100949, 5.000000e+00, -4.000000e+01, 0.000000e+00
  100950, 5.000000e+00, -4.800000e+01, 0.000000e+00
  100951, 5.000000e+00, -5.600000e+01, 0.000000e+00
  100952, 5.000000e+00, -6.400000e+01, 0.000000e+00
  100953, 5.000000e+00, -7.200000e+01, 0.000000e+00
  100954, 7.071068e+00, -8.000000e+01, -7.071068e+00
  100955, 7.071068e+00, -7.200000e+01, -7.071068e+00
  100956, 7.071068e+00, -6.400000e+01, -7.071068e+00
  100957, 7.071068e+00, -5.600000e+01, -7.071068e+00
  100958, 7.071068e+00, -4.800000e+01, -7.071068e+00
  100959, 7.071068e+00, -4.000000e+01, -7.071068e+00
  100960, 7.071068e+00, -3.200000e+01, -7.071068e+00
  100961, 7.071068e+00, -2.400000e+01, -7.071068e+00
  100962, 7.071068e+00, -1.600000e+01, -7.071068e+00
  100963, 7.071068e+00, -8.000000e+00, -7.071068e+00
  100964, 4.023689e+00, -8.000000e+00, -4.023689e+00
  100965, 4.023689e+00, -1.600000e+01, -4.023689e+00
  100966, 4.023689e+00, -2.400000e+01, -4.023689e+00
  100967, 4.023689e+00, -3.200000e+01, -4.023689e+00
  100968, 4.023689e+00, -4.000000e+01, -4.023689e+00
  100969, 4.023689e+00, -4.800000e+01, -4.023689e+00
  100970, 4.023689e+00, -5.600000e+01, -4.023689e+00
  100971, 4.023689e+00, -6.400000e+01, -4.023689e+00
  100972, 4.023689e+00, -7.200000e+01, -4.023689e+00
  100973, 4.023689e+00, -8.000000e+01, -4.023689e+00
  100974, 0.000000e+00, 6.666670e+00, -4.000000e+01
  100975, 0.000000e+00, 6.666670e+00, -1.900000e+01
  100976, 0.000000e+00, 6.666670e+00, -3.300000e+01
  100977, 0.000000e+00, 6.666670e+00, -2.600000e+01
  100978, 1.900000e+01, 6.666670e+00, 0.000000e+00
  100979, 7.270985e+00, 6.666670e+00, -1.755371e+01
  100980, 1.343503e+01, 6.666670e+00, -1.343503e+01
  100981, 1.755371e+01, 6.666670e+00, -7.270985e+00
  100982, 4.000000e+01, 6.666670e+00, 0.000000e+00
  100983, 3.300000e+01, 6.666670e+00, 0.000000e+00
  100984, 2.600000e+01, 6.666670e+00, 0.000000e+00
  100985, 4.000000e+01, 6.666670e+00, -4.000000e+01
  100986, 4.000000e+01, 6.666670e+00, -3.200000e+01
  100987, 4.000000e+01, 6.666670e+00, -2.400000e+01
  100988, 4.000000e+01, 6.666670e+00, -1.600000e+01
  100989, 4.000000e+01, 6.666670e+00, -8.000000e+00
  100990, 8.000000e+00, 6.666670e+00, -4.000000e+01
  100991, 1.600000e+01, 6.666670e+00, -4.000000e+01
  100992, 2.400000e+01, 6.666670e+00, -4.000000e+01
  100993, 3.200000e+01, 6.666670e+00, -4.000000e+01
  100994, 8.199713e+00, 6.666670e+00, -3.210138e+01
  100995, 8.298903e+00, 6.666670e+00, -2.415380e+01
  100996, 2.364509e+01, 6.666670e+00, -9.429413e+00
  100997, 3.136102e+01, 6.666670e+00, -1.085322e+01
  100998, 1.785728e+01, 6.666670e+00, -1.996323e+01
  100999, 3.491769e+01, 6.666670e+00, -1.667447e+01
  101000, 3.344812e+01, 6.666670e+00, -2.324315e+01
  101001, 3.256076e+01, 6.666670e+00, -3.142559e+01
  101002, 2.490097e+01, 6.666670e+00, -3.086468e+01
  101003, 1.664204e+01, 6.666670e+00, -3.083384e+01
  101004, 2.663041e+01, 6.666670e+00, -2.117313e+01
  101005, 0.000000e+00, 2.000000e+01, -1.900000e+01
  101006, 0.000000e+00, 1.333333e+01, -1.900000e+01
  101007, 0.000000e+00, 2.000000e+01, -4.000000e+01
  101008, 0.000000e+00, 2.000000e+01, -3.300000e+01
  101009, 0.000000e+00, 2.000000e+01, -2.600000e+01
  101010, 0.000000e+00, 1.333333e+01, -4.000000e+01
  101011, 0.000000e+00, 1.333333e+01, -3.300000e+01
  101012, 0.000000e+00, 1.333334e+01, -2.600000e+01
  101013, 1.900000e+01, 2.000000e+01, 0.000000e+00
  101014, 1.900000e+01, 1.333333e+01, 0.000000e+00
  101015, 7.270985e+00, 2.000000e+01, -1.755371e+01
  101016, 1.343503e+01, 2.000000e+01, -1.343503e+01
  101017, 1.755371e+01, 2.000000e+01, -7.270985e+00
  101018, 7.270985e+00, 1.333334e+01, -1.755371e+01
  101019, 1.343503e+01, 1.333334e+01, -1.343503e+01
  101020, 1.755371e+01, 1.333333e+01, -7.270985e+00
  101021, 4.000000e+01, 2.000000e+01, 0.000000e+00
  101022, 4.000000e+01, 1.333333e+01, 0.000000e+00
  101023, 3.300000e+01, 2.000000e+01, 0.000000e+00
  101024, 2.600000e+01, 2.000000e+01, 0.000000e+00
  101025, 2.600000e+01, 1.333334e+01, 0.000000e+00
  101026, 3.300000e+01, 1.333334e+01, 0.000000e+00
  101027, 4.000000e+01, 2.000000e+01, -4.000000e+01
  101028, 4.000000e+01, 1.333333e+01, -4.000000e+01
  101029, 4.000000e+01, 2.000000e+01, -8.000000e+00
  101030, 4.000000e+01, 2.000000e+01, -1.600000e+01
  101031, 4.000000e+01, 2.000000e+01, -2.400000e+01
  101032, 4.000000e+01, 2.000000e+01, -3.200000e+01
  101033, 4.000000e+01, 1.333333e+01, -8.000000e+00
  101034, 4.000000e+01, 1.333333e+01, -1.600000e+01
  101035, 4.000000e+01, 1.333333e+01, -2.400000e+01
  101036, 4.000000e+01, 1.333333e+01, -3.200000e+01
  101037, 8.000000e+00, 2.000000e+01, -4.000000e+01
  101038, 1.600000e+01, 2.000000e+01, -4.000000e+01
  101039, 2.400000e+01, 2.000000e+01, -4.000000e+01
  101040, 3.200000e+01, 2.000000e+01, -4.000000e+01
  101041, 8.000000e+00, 1.333333e+01, -4.000000e+01
  101042, 1.600000e+01, 1.333333e+01, -4.000000e+01
  101043, 2.400000e+01, 1.333333e+01, -4.000000e+01
  101044, 3.200000e+01, 1.333333e+01, -4.000000e+01
  101045, 8.199713e+00, 1.333334e+01, -3.210138e+01
  101046, 8.298903e+00, 1.333334e+01, -2.415380e+01
  101047, 2.364509e+01, 1.333334e+01, -9.429413e+00
  101048, 3.136102e+01, 1.333334e+01, -1.085322e+01
  101049, 1.785728e+01, 1.333334e+01, -1.996323e+01
  101050, 3.491769e+01, 1.333334e+01, -1.667447e+01
  101051, 3.344812e+01, 1.333334e+01, -2.324315e+01
  101052, 3.256076e+01, 1.333334e+01, -3.142559e+01
  101053, 2.490097e+01, 1.333334e+01, -3.086468e+01
  101054, 1.664204e+01, 1.333334e+01, -3.083384e+01
  101055, 2.663041e+01, 1.333334e+01, -2.117313e+01
  101056, 8.199713e+00, 2.000000e+01, -3.210138e+01
  101057, 8.298903e+00, 2.000000e+01, -2.415380e+01
  101058, 2.364509e+01, 2.000000e+01, -9.429413e+00
  101059, 3.136102e+01, 2.000000e+01, -1.085322e+01
  101060, 1.785728e+01, 2.000000e+01, -1.996323e+01
  101061, 3.491769e+01, 2.000000e+01, -1.667447e+01
  101062, 3.344812e+01, 2.000000e+01, -2.324315e+01
  101063, 3.256076e+01, 2.000000e+01, -3.142559e+01
  101064, 2.490097e+01, 2.000000e+01, -3.086468e+01
  101065, 1.664204e+01, 2.000000e+01, -3.083384e+01
  101066, 2.663041e+01, 2.000000e+01, -2.117313e+01
  101067, 0.000000e+00, 0.000000e+00, -1.900000e+01
  101068, 0.000000e+00, 0.000000e+00, -4.000000e+01
  101069, 0.000000e+00, 0.000000e+00, -2.600000e+01
  101070, 0.000000e+00, 0.000000e+00, -3.300000e+01
  101071, 1.900000e+01, 0.000000e+00, 0.000000e+00
  101072, 1.755371e+01, 0.000000e+00, -7.270985e+00
  101073, 1.343503e+01, 0.000000e+00, -1.343503e+01
  101074, 7.270985e+00, 0.000000e+00, -1.755371e+01
  101075, 4.000000e+01, 0.000000e+00, 0.000000e+00
  101076, 2.600000e+01, 0.000000e+00, 0.000000e+00
  101077, 3.300000e+01, 0.000000e+00, 0.000000e+00
  101078, 4.000000e+01, 0.000000e+00, -4.000000e+01
  101079, 3.200000e+01, 0.000000e+00, -4.000000e+01
  101080, 2.400000e+01, 0.000000e+00, -4.000000e+01
  101081, 1.600000e+01, 0.000000e+00, -4.000000e+01
  101082, 8.000000e+00, 0.000000e+00, -4.000000e+01
  101083, 4.000000e+01, 0.000000e+00, -8.000000e+00
  101084, 4.000000e+01, 0.000000e+00, -1.600000e+01
  101085, 4.000000e+01, 0.000000e+00, -2.400000e+01
  101086, 4.000000e+01, 0.000000e+00, -3.200000e+01
  101087, 8.199713e+00, 0.000000e+00, -3.210138e+01
  101088, 8.298903e+00, 0.000000e+00, -2.415380e+01
  101089, 2.364509e+01, 0.000000e+00, -9.429413e+00
  101090, 3.136102e+01, 0.000000e+00, -1.085322e+01
  101091, 1.785728e+01, 0.000000e+00, -1.996323e+01
  101092, 3.491769e+01, 0.000000e+00, -1.667447e+01
  101093, 3.344812e+01, 0.000000e+00, -2.324315e+01
  101094, 3.256076e+01, 0.000000e+00, -3.142559e+01
  101095, 2.490097e+01, 0.000000e+00, -3.086468e+01
  101096, 1.664204e+01, 0.000000e+00, -3.083384e+01
  101097, 2.663041e+01, 0.000000e+00, -2.117313e+01
  101098, 0.000000e+00, 2.000000e+01, -1.050000e+01
  101099, 0.000000e+00, 2.000000e+01, -1.900000e+01
  101100, 0.000000e+00, 2.000000e+01, -1.475000e+01
  101101, 1.900000e+01, 2.000000e+01, 1.163414e-16
  101102, 4.227898e+00, 2.000000e+01, -1.852363e+01
  101103, 8.243791e+00, 2.000000e+01, -1.711841e+01
  101104, 1.184631e+01, 2.000000e+01, -1.485480e+01
  101105, 1.485480e+01, 2.000000e+01, -1.184631e+01
  101106, 1.711841e+01, 2.000000e+01, -8.243791e+00
  101107, 1.852363e+01, 2.000000e+01, -4.227898e+00
  101108, 1.050000e+01, 2.000000e+01, 0.000000e+00
  101109, 1.475000e+01, 2.000000e+01, 0.000000e+00
  101110, 9.093267e+00, 2.000000e+01, -5.250000e+00
  101111, 5.250000e+00, 2.000000e+01, -9.093267e+00
  101112, 3.928697e+00, 2.000000e+01, -1.422771e+01
  101113, 1.422555e+01, 2.000000e+01, -3.934369e+00
  101114, 1.438692e+01, 2.000000e+01, -7.079528e+00
  101115, 1.181680e+01, 2.000000e+01, -9.060424e+00
  101116, 9.086306e+00, 2.000000e+01, -1.181833e+01
  101117, 7.086265e+00, 2.000000e+01, -1.438815e+01
  101118, 0.000000e+00, 2.380000e+01, -1.900000e+01
  101119, 0.000000e+00, 2.380000e+01, -1.050000e+01
  101120, 0.000000e+00, 2.380000e+01, -1.475000e+01
  101121, 1.900000e+01, 2.380000e+01, -1.163414e-16
  101122, 1.852363e+01, 2.380000e+01, -4.227898e+00
  101123, 1.711841e+01, 2.380000e+01, -8.243791e+00
  101124, 1.485480e+01, 2.380000e+01, -1.184631e+01
  101125, 1.184631e+01, 2.380000e+01, -1.485480e+01
  101126, 8.243791e+00, 2.380000e+01, -1.711841e+01
  101127, 4.227898e+00, 2.380000e+01, -1.852363e+01
  101128, 1.050000e+01, 2.380000e+01, 0.000000e+00
  101129, 1.475000e+01, 2.380000e+01, 0.000000e+00
  101130, 5.250000e+00, 2.380000e+01, -9.093267e+00
  101131, 9.093267e+00, 2.380000e+01, -5.250000e+00
  101132, 3.928697e+00, 2.380000e+01, -1.422771e+01
  101133, 1.422555e+01, 2.380000e+01, -3.934369e+00
  101134, 1.181680e+01, 2.380000e+01, -9.060424e+00
  101135, 9.086306e+00, 2.380000e+01, -1.181833e+01
  101136, 1.438692e+01, 2.380000e+01, -7.079528e+00
  101137, 7.086265e+00, 2.380000e+01, -1.438815e+01
  101138, 0.000000e+00, 2.380000e+01, -1.000000e+01
  101139, -3.181724e-15, 2.380000e+01, -1.732050e+01
  101140, 0.000000e+00, 2.380000e+01, -1.366025e+01
  101141, 1.499999e+01, 2.380000e+01, -8.660250e+00
  101142, 3.749998e+00, 2.380000e+01, -1.515544e+01
  101143, 7.499997e+00, 2.380000e+01, -1.299037e+01
  101144, 1.124999e+01, 2.380000e+01, -1.082531e+01
  101145, 1.499999e+01, 2.380000e+01, 0.000000e+00
  101146, 1.499999e+01, 2.380000e+01, -4.330125e+00
  101147, 1.000000e+01, 2.380000e+01, 0.000000e+00
  101148, 8.660254e+00, 2.380000e+01, -5.000000e+00
  101149, 5.000000e+00, 2.380000e+01, -8.660254e+00
  101150, 2.916666e+00, 2.380000e+01, -1.249198e+01
  101151, 0.000000e+00, 4.180000e+01, -1.000000e+01
  101152, 0.000000e+00, 3.730000e+01, -1.000000e+01
  101153, 0.000000e+00, 3.280000e+01, -1.000000e+01
  101154, 0.000000e+00, 2.830000e+01, -1.000000e+01
  101155, -3.181724e-15, 4.180000e+01, -1.732050e+01
  101156, 0.000000e+00, 4.180000e+01, -1.366025e+01
  101157, -3.181724e-15, 2.830000e+01, -1.732050e+01
  101158, -3.181724e-15, 3.280000e+01, -1.732050e+01
  101159, -3.181724e-15, 3.730000e+01, -1.732050e+01
  101160, 0.000000e+00, 2.830000e+01, -1.366025e+01
  101161, 0.000000e+00, 3.280000e+01, -1.366025e+01
  101162, 0.000000e+00, 3.730000e+01, -1.366025e+01
  101163, 1.000000e+01, 4.180000e+01, 0.000000e+00
  101164, 1.000000e+01, 3.730000e+01, -2.755455e-16
  101165, 1.000000e+01, 3.280000e+01, 0.000000e+00
  101166, 1.000000e+01, 2.830000e+01, 2.755455e-16
  101167, 5.000000e+00, 4.180000e+01, -8.660254e+00
  101168, 8.660254e+00, 4.180000e+01, -5.000000e+00
  101169, 5.000000e+00, 3.730000e+01, -8.660254e+00
  101170, 5.000000e+00, 3.280000e+01, -8.660254e+00
  101171, 5.000000e+00, 2.830000e+01, -8.660254e+00
  101172, 8.660254e+00, 3.730000e+01, -5.000000e+00
  101173, 8.660254e+00, 3.280000e+01, -5.000000e+00
  101174, 8.660254e+00, 2.830000e+01, -5.000000e+00
  101175, 1.499999e+01, 4.180000e+01, 0.000000e+00
  101176, 1.499999e+01, 2.830000e+01, 0.000000e+00
  101177, 1.499999e+01, 3.280000e+01, 0.000000e+00
  101178, 1.499999e+01, 3.730000e+01, 0.000000e+00
  101179, 1.499999e+01, 4.180000e+01, -8.660250e+00
  101180, 1.124999e+01, 4.180000e+01, -1.082531e+01
  101181, 7.499997e+00, 4.180000e+01, -1.299037e+01
  101182, 3.749998e+00, 4.180000e+01, -1.515544e+01
  101183, 1.499999e+01, 2.830000e+01, -8.660250e+00
  101184, 1.499999e+01, 3.280000e+01, -8.660250e+00
  101185, 1.499999e+01, 3.730000e+01, -8.660250e+00
  101186, 3.749998e+00, 2.830000e+01, -1.515544e+01
  101187, 3.749998e+00, 3.280000e+01, -1.515544e+01
  101188, 3.749998e+00, 3.730000e+01, -1.515544e+01
  101189, 7.499997e+00, 2.830000e+01, -1.299037e+01
  101190, 7.499997e+00, 3.280000e+01, -1.299037e+01
  101191, 7.499997e+00, 3.730000e+01, -1.299037e+01
  101192, 1.124999e+01, 2.830000e+01, -1.082531e+01
  101193, 1.124999e+01, 3.280000e+01, -1.082531e+01
  101194, 1.124999e+01, 3.730000e+01, -1.082531e+01
  101195, 1.499999e+01, 4.180000e+01, -4.330125e+00
  101196, 1.499999e+01, 3.730000e+01, -4.330125e+00
  101197, 1.499999e+01, 3.280000e+01, -4.330125e+00
  101198, 1.499999e+01, 2.830000e+01, -4.330125e+00
  101199, 2.916666e+00, 2.830000e+01, -1.249198e+01
  101200, 2.916666e+00, 3.280000e+01, -1.249198e+01
  101201, 2.916666e+00, 3.730000e+01, -1.249198e+01
  101202, 2.916666e+00, 4.180000e+01, -1.249198e+01
  102069, -1.000000e+01, 2.380000e+01, -3.851514e-15
  102070, -7.071068e+00, 2.380000e+01, -7.071068e+00
  102071, -5.000000e+00, 2.380000e+01, 0.000000e+00
  102072, -4.023689e+00, 2.380000e+01, -4.023689e+00
  102073, -1.000000e+01, 4.180000e+01, 0.000000e+00
  102074, -1.000000e+01, 3.730000e+01, -2.755455e-16
  102075, -1.000000e+01, 3.280000e+01, -2.175410e-31
  102076, -1.000000e+01, 2.830000e+01, 2.755455e-16
  102077, -7.071068e+00, 4.180000e+01, -7.071068e+00
  102078, -7.071068e+00, 3.730000e+01, -7.071068e+00
  102079, -7.071068e+00, 3.280000e+01, -7.071068e+00
  102080, -7.071068e+00, 2.830000e+01, -7.071068e+00
  102081, -5.000000e+00, 4.180000e+01, 0.000000e+00
  102082, -5.000000e+00, 2.830000e+01, 0.000000e+00
  102083, -5.000000e+00, 3.280000e+01, 0.000000e+00
  102084, -5.000000e+00, 3.730000e+01, 0.000000e+00
  102085, -4.023689e+00, 2.830000e+01, -4.023689e+00
  102086, -4.023689e+00, 3.280000e+01, -4.023689e+00
  102087, -4.023689e+00, 3.730000e+01, -4.023689e+00
  102088, -4.023689e+00, 4.180000e+01, -4.023689e+00
  102089, -1.000000e+01, 2.000000e+01, -3.618831e-15
  102090, -7.071068e+00, 2.000000e+01, -7.071068e+00
  102091, -5.000000e+00, 2.000000e+01, 0.000000e+00
  102092, -4.023689e+00, 2.000000e+01, -4.023689e+00
  102093, -1.000000e+01, 0.000000e+00, -2.394184e-15
  102094, -7.071068e+00, 0.000000e+00, -7.071068e+00
  102095, -1.000000e+01, 1.500000e+01, -3.061617e-16
  102096, -1.000000e+01, 1.000000e+01, 0.000000e+00
  102097, -1.000000e+01, 5.000000e+00, 3.061617e-16
  102098, -7.071068e+00, 1.500000e+01, -7.071068e+00
  102099, -7.071068e+00, 1.000000e+01, -7.071068e+00
  102100, -7.071068e+00, 5.000000e+00, -7.071068e+00
  102101, -5.000000e+00, 0.000000e+00, 0.000000e+00
  102102, -5.000000e+00, 5.000000e+00, 0.000000e+00
  102103, -5.000000e+00, 1.000000e+01, 0.000000e+00
  102104, -5.000000e+00, 1.500000e+01, 0.000000e+00
  102105, -4.023689e+00, 1.500000e+01, -4.023689e+00
  102106, -4.023689e+00, 1.000000e+01, -4.023689e+00
  102107, -4.023689e+00, 5.000000e+00, -4.023689e+00
  102108, -4.023689e+00, 0.000000e+00, -4.023689e+00
  102109, -1.000000e+01, -8.000000e+01, 0.000000e+00
  102110, -7.071068e+00, -8.000000e+01, -7.071068e+00
  102111, -1.000000e+01, -8.000000e+00, -6.796790e-16
  102112, -1.000000e+01, -1.600000e+01, -1.898203e-16
  102113, -1.000000e+01, -2.400000e+01, 3.000385e-16
  102114, -1.000000e+01, -3.200000e+01, 7.898972e-16
  102115, -1.000000e+01, -4.000000e+01, 1.279756e-15
  102116, -1.000000e+01, -4.800000e+01, 1.769615e-15
  102117, -1.000000e+01, -5.600000e+01, 2.259473e-15
  102118, -1.000000e+01, -6.400000e+01, 2.749332e-15
  102119, -1.000000e+01, -7.200000e+01, 3.239191e-15
  102120, -7.071068e+00, -8.000000e+00, -7.071068e+00
  102121, -7.071068e+00, -1.600000e+01, -7.071068e+00
  102122, -7.071068e+00, -2.400000e+01, -7.071068e+00
  102123, -7.071068e+00, -3.200000e+01, -7.071068e+00
  102124, -7.071068e+00, -4.000000e+01, -7.071068e+00
  102125, -7.071068e+00, -4.800000e+01, -7.071068e+00
  102126, -7.071068e+00, -5.600000e+01, -7.071068e+00
  102127, -7.071068e+00, -6.400000e+01, -7.071068e+00
  102128, -7.071068e+00, -7.200000e+01, -7.071068e+00
  102129, -5.000000e+00, -8.000000e+01, 0.000000e+00
  102130, -5.000000e+00, -7.200000e+01, 0.000000e+00
  102131, -5.000000e+00, -6.400000e+01, 0.000000e+00
  102132, -5.000000e+00, -5.600000e+01, 0.000000e+00
  102133, -5.000000e+00, -4.800000e+01, 0.000000e+00
  102134, -5.000000e+00, -4.000000e+01, 0.000000e+00
  102135, -5.000000e+00, -3.200000e+01, 0.000000e+00
  102136, -5.000000e+00, -2.400000e+01, 0.000000e+00
  102137, -5.000000e+00, -1.600000e+01, 0.000000e+00
  102138, -5.000000e+00, -8.000000e+00, 0.000000e+00
  102139, -4.023689e+00, -8.000000e+00, -4.023689e+00
  102140, -4.023689e+00, -1.600000e+01, -4.023689e+00
  102141, -4.023689e+00, -2.400000e+01, -4.023689e+00
  102142, -4.023689e+00, -3.200000e+01, -4.023689e+00
  102143, -4.023689e+00, -4.000000e+01, -4.023689e+00
  102144, -4.023689e+00, -4.800000e+01, -4.023689e+00
  102145, -4.023689e+00, -5.600000e+01, -4.023689e+00
  102146, -4.023689e+00, -6.400000e+01, -4.023689e+00
  102147, -4.023689e+00, -7.200000e+01, -4.023689e+00
  102148, -4.023689e+00, -8.000000e+01, -4.023689e+00
  102149, -4.000000e+01, 6.666670e+00, -4.000000e+01
  102150, -3.200000e+01, 6.666670e+00, -4.000000e+01
  102151, -2.400000e+01, 6.666670e+00, -4.000000e+01
  102152, -1.600000e+01, 6.666670e+00, -4.000000e+01
  102153, -8.000000e+00, 6.666670e+00, -4.000000e+01
  102154, -4.000000e+01, 6.666670e+00, 0.000000e+00
  102155, -4.000000e+01, 6.666670e+00, -8.000000e+00
  102156, -4.000000e+01, 6.666670e+00, -1.600000e+01
  102157, -4.000000e+01, 6.666670e+00, -2.400000e+01
  102158, -4.000000e+01, 6.666670e+00, -3.200000e+01
  102159, -1.900000e+01, 6.666670e+00, -1.918613e-15
  102160, -2.600000e+01, 6.666670e+00, 0.000000e+00
  102161, -3.300000e+01, 6.666670e+00, 0.000000e+00
  102162, -1.755371e+01, 6.666670e+00, -7.270985e+00
  102163, -1.343503e+01, 6.666670e+00, -1.343503e+01
  102164, -7.270985e+00, 6.666670e+00, -1.755371e+01
  102165, -9.399721e+00, 6.666670e+00, -2.363553e+01
  102166, -1.084609e+01, 6.666670e+00, -3.135945e+01
  102167, -3.210485e+01, 6.666670e+00, -8.200112e+00
  102168, -2.418809e+01, 6.666670e+00, -8.296960e+00
  102169, -1.995682e+01, 6.666670e+00, -1.785775e+01
  102170, -1.666913e+01, 6.666670e+00, -3.491745e+01
  102171, -2.323922e+01, 6.666670e+00, -3.344870e+01
  102172, -3.142233e+01, 6.666670e+00, -3.256190e+01
  102173, -3.086192e+01, 6.666670e+00, -2.490174e+01
  102174, -3.083204e+01, 6.666670e+00, -1.664337e+01
  102175, -2.116678e+01, 6.666670e+00, -2.663118e+01
  102176, -4.000000e+01, 2.000000e+01, -4.000000e+01
  102177, -4.000000e+01, 1.333333e+01, -4.000000e+01
  102178, -3.200000e+01, 2.000000e+01, -4.000000e+01
  102179, -2.400000e+01, 2.000000e+01, -4.000000e+01
  102180, -1.600000e+01, 2.000000e+01, -4.000000e+01
  102181, -8.000000e+00, 2.000000e+01, -4.000000e+01
  102182, -8.000000e+00, 1.333333e+01, -4.000000e+01
  102183, -1.600000e+01, 1.333333e+01, -4.000000e+01
  102184, -2.400000e+01, 1.333333e+01, -4.000000e+01
  102185, -3.200000e+01, 1.333333e+01, -4.000000e+01
  102186, -1.900000e+01, 2.000000e+01, -1.102182e-15
  102187, -1.900000e+01, 1.333333e+01, 0.000000e+00
  102188, -4.000000e+01, 2.000000e+01, 0.000000e+00
  102189, -2.600000e+01, 2.000000e+01, 0.000000e+00
  102190, -3.300000e+01, 2.000000e+01, 0.000000e+00
  102191, -4.000000e+01, 1.333333e+01, 0.000000e+00
  102192, -2.600000e+01, 1.333334e+01, 0.000000e+00
  102193, -3.300000e+01, 1.333334e+01, 0.000000e+00
  102194, -1.755371e+01, 2.000000e+01, -7.270985e+00
  102195, -1.343503e+01, 2.000000e+01, -1.343503e+01
  102196, -7.270985e+00, 2.000000e+01, -1.755371e+01
  102197, -7.270985e+00, 1.333334e+01, -1.755371e+01
  102198, -1.343503e+01, 1.333334e+01, -1.343503e+01
  102199, -1.755371e+01, 1.333333e+01, -7.270985e+00
  102200, -4.000000e+01, 2.000000e+01, -8.000000e+00
  102201, -4.000000e+01, 2.000000e+01, -1.600000e+01
  102202, -4.000000e+01, 2.000000e+01, -2.400000e+01
  102203, -4.000000e+01, 2.000000e+01, -3.200000e+01
  102204, -4.000000e+01, 1.333333e+01, -8.000000e+00
  102205, -4.000000e+01, 1.333333e+01, -1.600000e+01
  102206, -4.000000e+01, 1.333333e+01, -2.400000e+01
  102207, -4.000000e+01, 1.333333e+01, -3.200000e+01
  102208, -9.399721e+00, 1.333334e+01, -2.363553e+01
  102209, -1.084609e+01, 1.333334e+01, -3.135945e+01
  102210, -3.210485e+01, 1.333334e+01, -8.200112e+00
  102211, -2.418809e+01, 1.333334e+01, -8.296960e+00
  102212, -1.995682e+01, 1.333334e+01, -1.785775e+01
  102213, -1.666913e+01, 1.333334e+01, -3.491745e+01
  102214, -2.323922e+01, 1.333334e+01, -3.344870e+01
  102215, -3.142233e+01, 1.333334e+01, -3.256190e+01
  102216, -3.086192e+01, 1.333334e+01, -2.490174e+01
  102217, -3.083204e+01, 1.333334e+01, -1.664337e+01
  102218, -2.116678e+01, 1.333334e+01, -2.663118e+01
  102219, -9.399721e+00, 2.000000e+01, -2.363553e+01
  102220, -1.084609e+01, 2.000000e+01, -3.135945e+01
  102221, -3.210485e+01, 2.000000e+01, -8.200112e+00
  102222, -2.418809e+01, 2.000000e+01, -8.296960e+00
  102223, -1.995682e+01, 2.000000e+01, -1.785775e+01
  102224, -1.666913e+01, 2.000000e+01, -3.491745e+01
  102225, -2.323922e+01, 2.000000e+01, -3.344870e+01
  102226, -3.142233e+01, 2.000000e+01, -3.256190e+01
  102227, -3.086192e+01, 2.000000e+01, -2.490174e+01
  102228, -3.083204e+01, 2.000000e+01, -1.664337e+01
  102229, -2.116678e+01, 2.000000e+01, -2.663118e+01
  102230, -4.000000e+01, 0.000000e+00, -4.000000e+01
  102231, -8.000000e+00, 0.000000e+00, -4.000000e+01
  102232, -1.600000e+01, 0.000000e+00, -4.000000e+01
  102233, -2.400000e+01, 0.000000e+00, -4.000000e+01
  102234, -3.200000e+01, 0.000000e+00, -4.000000e+01
  102235, -1.900000e+01, 0.000000e+00, 2.326829e-15
  102236, -4.000000e+01, 0.000000e+00, 0.000000e+00
  102237, -3.300000e+01, 0.000000e+00, 0.000000e+00
  102238, -2.600000e+01, 0.000000e+00, 0.000000e+00
  102239, -7.270985e+00, 0.000000e+00, -1.755371e+01
  102240, -1.343503e+01, 0.000000e+00, -1.343503e+01
  102241, -1.755371e+01, 0.000000e+00, -7.270985e+00
  102242, -4.000000e+01, 0.000000e+00, -8.000000e+00
  102243, -4.000000e+01, 0.000000e+00, -1.600000e+01
  102244, -4.000000e+01, 0.000000e+00, -2.400000e+01
  102245, -4.000000e+01, 0.000000e+00, -3.200000e+01
  102246, -9.399721e+00, 0.000000e+00, -2.363553e+01
  102247, -1.084609e+01, 0.000000e+00, -3.135945e+01
  102248, -3.210485e+01, 0.000000e+00, -8.200112e+00
  102249, -2.418809e+01, 0.000000e+00, -8.296960e+00
  102250, -1.995682e+01, 0.000000e+00, -1.785775e+01
  102251, -1.666913e+01, 0.000000e+00, -3.491745e+01
  102252, -2.323922e+01, 0.000000e+00, -3.344870e+01
  102253, -3.142233e+01, 0.000000e+00, -3.256190e+01
  102254, -3.086192e+01, 0.000000e+00, -2.490174e+01
  102255, -3.083204e+01, 0.000000e+00, -1.664337e+01
  102256, -2.116678e+01, 0.000000e+00, -2.663118e+01
  102257, -1.050000e+01, 2.000000e+01, 1.402221e-15
  102258, -5.250000e+00, 2.000000e+01, -9.093267e+00
  102259, -9.093267e+00, 2.000000e+01, -5.250000e+00
  102260, -1.900000e+01, 2.000000e+01, 0.000000e+00
  102261, -1.475000e+01, 2.000000e+01, 0.000000e+00
  102262, -1.852363e+01, 2.000000e+01, -4.227898e+00
  102263, -1.711841e+01, 2.000000e+01, -8.243791e+00
  102264, -1.485480e+01, 2.000000e+01, -1.184631e+01
  102265, -1.184631e+01, 2.000000e+01, -1.485480e+01
  102266, -8.243791e+00, 2.000000e+01, -1.711841e+01
  102267, -4.227898e+00, 2.000000e+01, -1.852363e+01
  102268, -3.935452e+00, 2.000000e+01, -1.422611e+01
  102269, -1.422768e+01, 2.000000e+01, -3.928707e+00
  102270, -7.079947e+00, 2.000000e+01, -1.438715e+01
  102271, -9.060597e+00, 2.000000e+01, -1.181692e+01
  102272, -1.181837e+01, 2.000000e+01, -9.086346e+00
  102273, -1.438815e+01, 2.000000e+01, -7.086282e+00
  102274, -1.050000e+01, 2.380000e+01, -1.402221e-15
  102275, -9.093267e+00, 2.380000e+01, -5.250000e+00
  102276, -5.250000e+00, 2.380000e+01, -9.093267e+00
  102277, -1.900000e+01, 2.380000e+01, 0.000000e+00
  102278, -1.475000e+01, 2.380000e+01, 0.000000e+00
  102279, -4.227898e+00, 2.380000e+01, -1.852363e+01
  102280, -8.243791e+00, 2.380000e+01, -1.711841e+01
  102281, -1.184631e+01, 2.380000e+01, -1.485480e+01
  102282, -1.485480e+01, 2.380000e+01, -1.184631e+01
  102283, -1.711841e+01, 2.380000e+01, -8.243791e+00
  102284, -1.852363e+01, 2.380000e+01, -4.227898e+00
  102285, -3.935452e+00, 2.380000e+01, -1.422611e+01
  102286, -1.422768e+01, 2.380000e+01, -3.928707e+00
  102287, -9.060597e+00, 2.380000e+01, -1.181692e+01
  102288, -1.181837e+01, 2.380000e+01, -9.086346e+00
  102289, -7.079947e+00, 2.380000e+01, -1.438715e+01
  102290, -1.438815e+01, 2.380000e+01, -7.086282e+00
  102291, -1.000000e+01, 2.380000e+01, 1.775738e-15
  102292, -5.000000e+00, 2.380000e+01, -8.660254e+00
  102293, -8.660254e+00, 2.380000e+01, -5.000000e+00
  102294, -1.499999e+01, 2.380000e+01, 0.000000e+00
  102295, -1.499999e+01, 2.380000e+01, -8.660250e+00
  102296, -1.499999e+01, 2.380000e+01, -4.330125e+00
  102297, -1.124999e+01, 2.380000e+01, -1.082531e+01
  102298, -7.499997e+00, 2.380000e+01, -1.299038e+01
  102299, -3.749998e+00, 2.380000e+01, -1.515544e+01
  102300, -2.916666e+00, 2.380000e+01, -1.249198e+01
  102301, -1.000000e+01, 4.180000e+01, -1.775738e-15
  102302, -1.000000e+01, 2.830000e+01, 2.755455e-16
  102303, -1.000000e+01, 3.280000e+01, 0.000000e+00
  102304, -1.000000e+01, 3.730000e+01, -2.755455e-16
  102305, -1.499999e+01, 4.180000e+01, 0.000000e+00
  102306, -1.499999e+01, 3.730000e+01, 0.000000e+00
  102307, -1.499999e+01, 3.280000e+01, 0.000000e+00
  102308, -1.499999e+01, 2.830000e+01, 0.000000e+00
  102309, -8.660254e+00, 4.180000e+01, -5.000000e+00
  102310, -5.000000e+00, 4.180000e+01, -8.660254e+00
  102311, -5.000000e+00, 2.830000e+01, -8.660254e+00
  102312, -5.000000e+00, 3.280000e+01, -8.660254e+00
  102313, -5.000000e+00, 3.730000e+01, -8.660254e+00
  102314, -8.660254e+00, 2.830000e+01, -5.000000e+00
  102315, -8.660254e+00, 3.280000e+01, -5.000000e+00
  102316, -8.660254e+00, 3.730000e+01, -5.000000e+00
  102317, -1.499999e+01, 4.180000e+01, -8.660250e+00
  102318, -1.499999e+01, 2.830000e+01, -8.660250e+00
  102319, -1.499999e+01, 3.280000e+01, -8.660250e+00
  102320, -1.499999e+01, 3.730000e+01, -8.660250e+00
  102321, -3.749998e+00, 4.180000e+01, -1.515544e+01
  102322, -7.499997e+00, 4.180000e+01, -1.299038e+01
  102323, -1.124999e+01, 4.180000e+01, -1.082531e+01
  102324, -1.124999e+01, 2.830000e+01, -1.082531e+01
  102325, -1.124999e+01, 3.280000e+01, -1.082531e+01
  102326, -1.124999e+01, 3.730000e+01, -1.082531e+01
  102327, -7.499997e+00, 2.830000e+01, -1.299038e+01
  102328, -7.499997e+00, 3.280000e+01, -1.299038e+01
  102329, -7.499997e+00, 3.730000e+01, -1.299038e+01
  102330, -3.749998e+00, 2.830000e+01, -1.515544e+01
  102331, -3.749998e+00, 3.280000e+01, -1.515544e+01
  102332, -3.749998e+00, 3.730000e+01, -1.515544e+01
  102333, -1.499999e+01, 4.180000e+01, -4.330125e+00
  102334, -1.499999e+01, 2.830000e+01, -4.330125e+00
  102335, -1.499999e+01, 3.280000e+01, -4.330125e+00
  102336, -1.499999e+01, 3.730000e+01, -4.330125e+00
  102337, -2.916666e+00, 2.830000e+01, -1.249198e+01
  102338, -2.916666e+00, 3.280000e+01, -1.249198e+01
  102339, -2.916666e+00, 3.730000e+01, -1.249198e+01
  102340, -2.916666e+00, 4.180000e+01, -1.249198e+01
  102389, 0.000000e+00, -6.735557e-16, -1.100000e+01
  102390, 0.000000e+00, -6.123234e-16, -1.000000e+01
  102391, 0.000000e+00, -8.000000e+01, -1.100000e+01
  102392, 0.000000e+00, -7.500000e+01, -1.100000e+01
  102393, 0.000000e+00, -7.000000e+01, -1.100000e+01
  102394, 0.000000e+00, -6.500000e+01, -1.100000e+01
  102395, 0.000000e+00, -6.000000e+01, -1.100000e+01
  102396, 0.000000e+00, -5.500000e+01, -1.100000e+01
  102397, 0.000000e+00, -5.000000e+01, -1.100000e+01
  102398, 0.000000e+00, -4.500000e+01, -1.100000e+01
  102399, 0.000000e+00, -4.000000e+01, -1.100000e+01
  102400, 0.000000e+00, -3.500000e+01, -1.100000e+01
  102401, 0.000000e+00, -3.000000e+01, -1.100000e+01
  102402, 0.000000e+00, -2.500000e+01, -1.100000e+01
  102403, 0.000000e+00, -2.000000e+01, -1.100000e+01
  102404, 0.000000e+00, -1.500000e+01, -1.100000e+01
  102405, 0.000000e+00, -1.000000e+01, -1.100000e+01
  102406, 0.000000e+00, -5.000000e+00, -1.100000e+01
  102407, 0.000000e+00, -8.000000e+01, -1.000000e+01
  102408, 0.000000e+00, -5.000000e+00, -1.000000e+01
  102409, 0.000000e+00, -1.000000e+01, -1.000000e+01
  102410, 0.000000e+00, -1.500000e+01, -1.000000e+01
  102411, 0.000000e+00, -2.000000e+01, -1.000000e+01
  102412, 0.000000e+00, -2.500000e+01, -1.000000e+01
  102413, 0.000000e+00, -3.000000e+01, -1.000000e+01
  102414, 0.000000e+00, -3.500000e+01, -1.000000e+01
  102415, 0.000000e+00, -4.000000e+01, -1.000000e+01
  102416, 0.000000e+00, -4.500000e+01, -1.000000e+01
  102417, 0.000000e+00, -5.000000e+01, -1.000000e+01
  102418, 0.000000e+00, -5.500000e+01, -1.000000e+01
  102419, 0.000000e+00, -6.000000e+01, -1.000000e+01
  102420, 0.000000e+00, -6.500000e+01, -1.000000e+01
  102421, 0.000000e+00, -7.000000e+01, -1.000000e+01
  102422, 0.000000e+00, -7.500000e+01, -1.000000e+01
  102423, 1.100000e+01, -8.000000e+01, 2.449294e-15
  102424, 5.500000e+00, -8.000000e+01, -9.526279e+00
  102425, 9.526279e+00, -8.000000e+01, -5.500000e+00
  102426, 1.000000e+01, -8.000000e+01, 2.449294e-15
  102427, 8.660254e+00, -8.000000e+01, -5.000000e+00
  102428, 5.000000e+00, -8.000000e+01, -8.660254e+00
  102429, 1.100000e+01, 0.000000e+00, -2.449294e-15
  102430, 9.526279e+00, -3.367779e-16, -5.500000e+00
  102431, 5.500000e+00, -5.833164e-16, -9.526279e+00
  102432, 1.100000e+01, -7.500000e+01, 2.143132e-15
  102433, 1.100000e+01, -7.000000e+01, 1.836970e-15
  102434, 1.100000e+01, -6.500000e+01, 1.530808e-15
  102435, 1.100000e+01, -6.000000e+01, 1.224647e-15
  102436, 1.100000e+01, -5.500000e+01, 9.184851e-16
  102437, 1.100000e+01, -5.000000e+01, 6.123234e-16
  102438, 1.100000e+01, -4.500000e+01, 3.061617e-16
  102439, 1.100000e+01, -4.000000e+01, 0.000000e+00
  102440, 1.100000e+01, -3.500000e+01, -3.061617e-16
  102441, 1.100000e+01, -3.000000e+01, -6.123234e-16
  102442, 1.100000e+01, -2.500000e+01, -9.184851e-16
  102443, 1.100000e+01, -2.000000e+01, -1.224647e-15
  102444, 1.100000e+01, -1.500000e+01, -1.530808e-15
  102445, 1.100000e+01, -1.000000e+01, -1.836970e-15
  102446, 1.100000e+01, -5.000000e+00, -2.143132e-15
  102447, 5.500000e+00, -7.500000e+01, -9.526279e+00
  102448, 5.500000e+00, -7.000000e+01, -9.526279e+00
  102449, 5.500000e+00, -6.500000e+01, -9.526279e+00
  102450, 5.500000e+00, -6.000000e+01, -9.526279e+00
  102451, 5.500000e+00, -5.500000e+01, -9.526279e+00
  102452, 5.500000e+00, -5.000000e+01, -9.526279e+00
  102453, 5.500000e+00, -4.500000e+01, -9.526279e+00
  102454, 5.500000e+00, -4.000000e+01, -9.526279e+00
  102455, 5.500000e+00, -3.500000e+01, -9.526279e+00
  102456, 5.500000e+00, -3.000000e+01, -9.526279e+00
  102457, 5.500000e+00, -2.500000e+01, -9.526279e+00
  102458, 5.500000e+00, -2.000000e+01, -9.526279e+00
  102459, 5.500000e+00, -1.500000e+01, -9.526279e+00
  102460, 5.500000e+00, -1.000000e+01, -9.526279e+00
  102461, 5.500000e+00, -5.000000e+00, -9.526279e+00
  102462, 9.526279e+00, -7.500000e+01, -5.500000e+00
  102463, 9.526279e+00, -7.000000e+01, -5.500000e+00
  102464, 9.526279e+00, -6.500000e+01, -5.500000e+00
  102465, 9.526279e+00, -6.000000e+01, -5.500000e+00
  102466, 9.526279e+00, -5.500000e+01, -5.500000e+00
  102467, 9.526279e+00, -5.000000e+01, -5.500000e+00
  102468, 9.526279e+00, -4.500000e+01, -5.500000e+00
  102469, 9.526279e+00, -4.000000e+01, -5.500000e+00
  102470, 9.526279e+00, -3.500000e+01, -5.500000e+00
  102471, 9.526279e+00, -3.000000e+01, -5.500000e+00
  102472, 9.526279e+00, -2.500000e+01, -5.500000e+00
  102473, 9.526279e+00, -2.000000e+01, -5.500000e+00
  102474, 9.526279e+00, -1.500000e+01, -5.500000e+00
  102475, 9.526279e+00, -1.000000e+01, -5.500000e+00
  102476, 9.526279e+00, -5.000000e+00, -5.500000e+00
  102477, 1.000000e+01, 0.000000e+00, -2.449294e-15
  102478, 1.000000e+01, -5.000000e+00, -2.143132e-15
  102479, 1.000000e+01, -1.000000e+01, -1.836970e-15
  102480, 1.000000e+01, -1.500000e+01, -1.530808e-15
  102481, 1.000000e+01, -2.000000e+01, -1.224647e-15
  102482, 1.000000e+01, -2.500000e+01, -9.184851e-16
  102483, 1.000000e+01, -3.000000e+01, -6.123234e-16
  102484, 1.000000e+01, -3.500000e+01, -3.061617e-16
  102485, 1.000000e+01, -4.000000e+01, 0.000000e+00
  102486, 1.000000e+01, -4.500000e+01, 3.061617e-16
  102487, 1.000000e+01, -5.000000e+01, 6.123234e-16
  102488, 1.000000e+01, -5.500000e+01, 9.184851e-16
  102489, 1.000000e+01, -6.000000e+01, 1.224647e-15
  102490, 1.000000e+01, -6.500000e+01, 1.530808e-15
  102491, 1.000000e+01, -7.000000e+01, 1.836970e-15
  102492, 1.000000e+01, -7.500000e+01, 2.143132e-15
  102493, 5.000000e+00, -5.302876e-16, -8.660254e+00
  102494, 8.660254e+00, -3.061617e-16, -5.000000e+00
  102495, 5.000000e+00, -5.000000e+00, -8.660254e+00
  102496, 5.000000e+00, -1.000000e+01, -8.660254e+00
  102497, 5.000000e+00, -1.500000e+01, -8.660254e+00
  102498, 5.000000e+00, -2.000000e+01, -8.660254e+00
  102499, 5.000000e+00, -2.500000e+01, -8.660254e+00
  102500, 5.000000e+00, -3.000000e+01, -8.660254e+00
  102501, 5.000000e+00, -3.500000e+01, -8.660254e+00
  102502, 5.000000e+00, -4.000000e+01, -8.660254e+00
  102503, 5.000000e+00, -4.500000e+01, -8.660254e+00
  102504, 5.000000e+00, -5.000000e+01, -8.660254e+00
  102505, 5.000000e+00, -5.500000e+01, -8.660254e+00
  102506, 5.000000e+00, -6.000000e+01, -8.660254e+00
  102507, 5.000000e+00, -6.500000e+01, -8.660254e+00
  102508, 5.000000e+00, -7.000000e+01, -8.660254e+00
  102509, 5.000000e+00, -7.500000e+01, -8.660254e+00
  102510, 8.660254e+00, -5.000000e+00, -5.000000e+00
  102511, 8.660254e+00, -1.000000e+01, -5.000000e+00
  102512, 8.660254e+00, -1.500000e+01, -5.000000e+00
  102513, 8.660254e+00, -2.000000e+01, -5.000000e+00
  102514, 8.660254e+00, -2.500000e+01, -5.000000e+00
  102515, 8.660254e+00, -3.000000e+01, -5.000000e+00
  102516, 8.660254e+00, -3.500000e+01, -5.000000e+00
  102517, 8.660254e+00, -4.000000e+01, -5.000000e+00
  102518, 8.660254e+00, -4.500000e+01, -5.000000e+00
  102519, 8.660254e+00, -5.000000e+01, -5.000000e+00
  102520, 8.660254e+00, -5.500000e+01, -5.000000e+00
  102521, 8.660254e+00, -6.000000e+01, -5.000000e+00
  102522, 8.660254e+00, -6.500000e+01, -5.000000e+00
  102523, 8.660254e+00, -7.000000e+01, -5.000000e+00
  102524, 8.660254e+00, -7.500000e+01, -5.000000e+00
  102795, 0.000000e+00, 6.666670e+00, -1.050000e+01
  102796, 0.000000e+00, 6.666670e+00, -1.475000e+01
  102797, 0.000000e+00, 0.000000e+00, -1.050000e+01
  102798, 0.000000e+00, 0.000000e+00, -1.475000e+01
  102799, 1.050000e+01, 0.000000e+00, 0.000000e+00
  102800, 1.475000e+01, 0.000000e+00, 0.000000e+00
  102801, 9.700735e+00, 0.000000e+00, -4.018176e+00
  102802, 7.424621e+00, 0.000000e+00, -7.424621e+00
  102803, 4.018176e+00, 0.000000e+00, -9.700735e+00
  102804, 5.644581e+00, 0.000000e+00, -1.362722e+01
  102805, 1.042983e+01, 0.000000e+00, -1.042983e+01
  102806, 1.362722e+01, 0.000000e+00, -5.644581e+00
  102807, 1.050000e+01, 6.666670e+00, 0.000000e+00
  102808, 1.475000e+01, 6.666670e+00, 0.000000e+00
  102809, 9.700735e+00, 6.666670e+00, -4.018176e+00
  102810, 7.424621e+00, 6.666670e+00, -7.424621e+00
  102811, 4.018176e+00, 6.666670e+00, -9.700735e+00
  102812, 5.644581e+00, 6.666670e+00, -1.362722e+01
  102813, 1.042983e+01, 6.666670e+00, -1.042983e+01
  102814, 1.362722e+01, 6.666670e+00, -5.644581e+00
  102815, 0.000000e+00, 2.000000e+01, -1.050000e+01
  102816, 0.000000e+00, 2.000000e+01, -1.475000e+01
  102817, 0.000000e+00, 1.333333e+01, -1.050000e+01
  102818, 0.000000e+00, 1.333334e+01, -1.475000e+01
  102819, 1.050000e+01, 2.000000e+01, 0.000000e+00
  102820, 1.475000e+01, 2.000000e+01, 0.000000e+00
  102821, 1.050000e+01, 1.333333e+01, -2.041079e-16
  102822, 1.475000e+01, 1.333334e+01, 0.000000e+00
  102823, 4.018176e+00, 2.000000e+01, -9.700735e+00
  102824, 7.424621e+00, 2.000000e+01, -7.424621e+00
  102825, 9.700735e+00, 2.000000e+01, -4.018176e+00
  102826, 5.644581e+00, 2.000000e+01, -1.362722e+01
  102827, 1.042983e+01, 2.000000e+01, -1.042983e+01
  102828, 1.362722e+01, 2.000000e+01, -5.644581e+00
  102829, 4.018176e+00, 1.333334e+01, -9.700735e+00
  102830, 7.424621e+00, 1.333334e+01, -7.424621e+00
  102831, 9.700735e+00, 1.333333e+01, -4.018176e+00
  102832, 5.644581e+00, 1.333334e+01, -1.362722e+01
  102833, 1.042983e+01, 1.333334e+01, -1.042983e+01
  102834, 1.362722e+01, 1.333334e+01, -5.644581e+00
  102835, -1.000000e+01, 1.499760e-31, 0.000000e+00
  102836, -8.660254e+00, -3.061617e-16, -5.000000e+00
  102837, -5.000000e+00, -5.302876e-16, -8.660254e+00
  102838, -1.000000e+01, -8.000000e+01, 0.000000e+00
  102839, -1.000000e+01, -7.500000e+01, 2.143132e-15
  102840, -1.000000e+01, -7.000000e+01, 1.836970e-15
  102841, -1.000000e+01, -6.500000e+01, 1.530808e-15
  102842, -1.000000e+01, -6.000000e+01, 1.224647e-15
  102843, -1.000000e+01, -5.500000e+01, 9.184851e-16
  102844, -1.000000e+01, -5.000000e+01, 6.123234e-16
  102845, -1.000000e+01, -4.500000e+01, 3.061617e-16
  102846, -1.000000e+01, -4.000000e+01, 0.000000e+00
  102847, -1.000000e+01, -3.500000e+01, -3.061617e-16
  102848, -1.000000e+01, -3.000000e+01, -6.123234e-16
  102849, -1.000000e+01, -2.500000e+01, -9.184851e-16
  102850, -1.000000e+01, -2.000000e+01, -1.224647e-15
  102851, -1.000000e+01, -1.500000e+01, -1.530808e-15
  102852, -1.000000e+01, -1.000000e+01, -1.836970e-15
  102853, -1.000000e+01, -5.000000e+00, -2.143132e-15
  102854, -5.000000e+00, -8.000000e+01, -8.660254e+00
  102855, -8.660254e+00, -8.000000e+01, -5.000000e+00
  102856, -5.000000e+00, -7.500000e+01, -8.660254e+00
  102857, -5.000000e+00, -7.000000e+01, -8.660254e+00
  102858, -5.000000e+00, -6.500000e+01, -8.660254e+00
  102859, -5.000000e+00, -6.000000e+01, -8.660254e+00
  102860, -5.000000e+00, -5.500000e+01, -8.660254e+00
  102861, -5.000000e+00, -5.000000e+01, -8.660254e+00
  102862, -5.000000e+00, -4.500000e+01, -8.660254e+00
  102863, -5.000000e+00, -4.000000e+01, -8.660254e+00
  102864, -5.000000e+00, -3.500000e+01, -8.660254e+00
  102865, -5.000000e+00, -3.000000e+01, -8.660254e+00
  102866, -5.000000e+00, -2.500000e+01, -8.660254e+00
  102867, -5.000000e+00, -2.000000e+01, -8.660254e+00
  102868, -5.000000e+00, -1.500000e+01, -8.660254e+00
  102869, -5.000000e+00, -1.000000e+01, -8.660254e+00
  102870, -5.000000e+00, -5.000000e+00, -8.660254e+00
  102871, -8.660254e+00, -7.500000e+01, -5.000000e+00
  102872, -8.660254e+00, -7.000000e+01, -5.000000e+00
  102873, -8.660254e+00, -6.500000e+01, -5.000000e+00
  102874, -8.660254e+00, -6.000000e+01, -5.000000e+00
  102875, -8.660254e+00, -5.500000e+01, -5.000000e+00
  102876, -8.660254e+00, -5.000000e+01, -5.000000e+00
  102877, -8.660254e+00, -4.500000e+01, -5.000000e+00
  102878, -8.660254e+00, -4.000000e+01, -5.000000e+00
  102879, -8.660254e+00, -3.500000e+01, -5.000000e+00
  102880, -8.660254e+00, -3.000000e+01, -5.000000e+00
  102881, -8.660254e+00, -2.500000e+01, -5.000000e+00
  102882, -8.660254e+00, -2.000000e+01, -5.000000e+00
  102883, -8.660254e+00, -1.500000e+01, -5.000000e+00
  102884, -8.660254e+00, -1.000000e+01, -5.000000e+00
  102885, -8.660254e+00, -5.000000e+00, -5.000000e+00
  102886, -1.100000e+01, 1.499760e-31, 0.000000e+00
  102887, -5.500000e+00, -5.833164e-16, -9.526279e+00
  102888, -9.526279e+00, -3.367779e-16, -5.500000e+00
  102889, -1.100000e+01, -8.000000e+01, 0.000000e+00
  102890, -1.100000e+01, -5.000000e+00, -2.143132e-15
  102891, -1.100000e+01, -1.000000e+01, -1.836970e-15
  102892, -1.100000e+01, -1.500000e+01, -1.530808e-15
  102893, -1.100000e+01, -2.000000e+01, -1.224647e-15
  102894, -1.100000e+01, -2.500000e+01, -9.184851e-16
  102895, -1.100000e+01, -3.000000e+01, -6.123234e-16
  102896, -1.100000e+01, -3.500000e+01, -3.061617e-16
  102897, -1.100000e+01, -4.000000e+01, 0.000000e+00
  102898, -1.100000e+01, -4.500000e+01, 3.061617e-16
  102899, -1.100000e+01, -5.000000e+01, 6.123234e-16
  102900, -1.100000e+01, -5.500000e+01, 9.184851e-16
  102901, -1.100000e+01, -6.000000e+01, 1.224647e-15
  102902, -1.100000e+01, -6.500000e+01, 1.530808e-15
  102903, -1.100000e+01, -7.000000e+01, 1.836970e-15
  102904, -1.100000e+01, -7.500000e+01, 2.143132e-15
  102905, -9.526279e+00, -8.000000e+01, -5.500000e+00
  102906, -5.500000e+00, -8.000000e+01, -9.526279e+00
  102907, -5.500000e+00, -5.000000e+00, -9.526279e+00
  102908, -5.500000e+00, -1.000000e+01, -9.526279e+00
  102909, -5.500000e+00, -1.500000e+01, -9.526279e+00
  102910, -5.500000e+00, -2.000000e+01, -9.526279e+00
  102911, -5.500000e+00, -2.500000e+01, -9.526279e+00
  102912, -5.500000e+00, -3.000000e+01, -9.526279e+00
  102913, -5.500000e+00, -3.500000e+01, -9.526279e+00
  102914, -5.500000e+00, -4.000000e+01, -9.526279e+00
  102915, -5.500000e+00, -4.500000e+01, -9.526279e+00
  102916, -5.500000e+00, -5.000000e+01, -9.526279e+00
  102917, -5.500000e+00, -5.500000e+01, -9.526279e+00
  102918, -5.500000e+00, -6.000000e+01, -9.526279e+00
  102919, -5.500000e+00, -6.500000e+01, -9.526279e+00
  102920, -5.500000e+00, -7.000000e+01, -9.526279e+00
  102921, -5.500000e+00, -7.500000e+01, -9.526279e+00
  102922, -9.526279e+00, -5.000000e+00, -5.500000e+00
  102923, -9.526279e+00, -1.000000e+01, -5.500000e+00
  102924, -9.526279e+00, -1.500000e+01, -5.500000e+00
  102925, -9.526279e+00, -2.000000e+01, -5.500000e+00
  102926, -9.526279e+00, -2.500000e+01, -5.500000e+00
  102927, -9.526279e+00, -3.000000e+01, -5.500000e+00
  102928, -9.526279e+00, -3.500000e+01, -5.500000e+00
  102929, -9.526279e+00, -4.000000e+01, -5.500000e+00
  102930, -9.526279e+00, -4.500000e+01, -5.500000e+00
  102931, -9.526279e+00, -5.000000e+01, -5.500000e+00
  102932, -9.526279e+00, -5.500000e+01, -5.500000e+00
  102933, -9.526279e+00, -6.000000e+01, -5.500000e+00
  102934, -9.526279e+00, -6.500000e+01, -5.500000e+00
  102935, -9.526279e+00, -7.000000e+01, -5.500000e+00
  102936, -9.526279e+00, -7.500000e+01, -5.500000e+00
  103117, -1.050000e+01, 6.666670e+00, 1.489987e-15
  103118, -4.018176e+00, 6.666670e+00, -9.700735e+00
  103119, -7.424621e+00, 6.666670e+00, -7.424621e+00
  103120, -9.700735e+00, 6.666670e+00, -4.018176e+00
  103121, -1.050000e+01, 0.000000e+00, 1.898203e-15
  103122, -4.018176e+00, 0.000000e+00, -9.700735e+00
  103123, -7.424621e+00, 0.000000e+00, -7.424621e+00
  103124, -9.700735e+00, 0.000000e+00, -4.018176e+00
  103125, -1.475000e+01, 6.666670e+00, 0.000000e+00
  103126, -5.644581e+00, 6.666670e+00, -1.362722e+01
  103127, -1.042983e+01, 6.666670e+00, -1.042983e+01
  103128, -1.362722e+01, 6.666670e+00, -5.644581e+00
  103129, -1.475000e+01, 0.000000e+00, 0.000000e+00
  103130, -5.644581e+00, 0.000000e+00, -1.362722e+01
  103131, -1.042983e+01, 0.000000e+00, -1.042983e+01
  103132, -1.362722e+01, 0.000000e+00, -5.644581e+00
  103133, -1.050000e+01, 2.000000e+01, -1.898203e-15
  103134, -9.700735e+00, 2.000000e+01, -4.018176e+00
  103135, -7.424621e+00, 2.000000e+01, -7.424621e+00
  103136, -4.018176e+00, 2.000000e+01, -9.700735e+00
  103137, -1.050000e+01, 1.333333e+01, -2.041079e-16
  103138, -4.018176e+00, 1.333333e+01, -9.700735e+00
  103139, -7.424621e+00, 1.333334e+01, -7.424621e+00
  103140, -9.700735e+00, 1.333334e+01, -4.018176e+00
  103141, -1.475000e+01, 2.000000e+01, 0.000000e+00
  103142, -5.644581e+00, 2.000000e+01, -1.362722e+01
  103143, -1.042983e+01, 2.000000e+01, -1.042983e+01
  103144, -1.362722e+01, 2.000000e+01, -5.644581e+00
  103145, -1.475000e+01, 1.333333e+01, 0.000000e+00
  103146, -1.362722e+01, 1.333333e+01, -5.644581e+00
  103147, -1.042983e+01, 1.333334e+01, -1.042983e+01
  103148, -5.644581e+00, 1.333334e+01, -1.362722e+01
********************************** E L E M E N T S ****************************
*ELEMENT, TYPE=C3D8, ELSET=anchor
       1,   100945,   100944,   100963,   100964,   100889,   100888,   100896,   100903
       2,   100925,   100916,   100945,   100964,   100881,   100880,   100889,   100903
       3,   100963,   100913,   100925,   100964,   100896,   100876,   100881,   100903
       4,   100946,   100943,   100962,   100965,   100945,   100944,   100963,   100964
       5,   100926,   100917,   100946,   100965,   100925,   100916,   100945,   100964
       6,   100962,   100912,   100926,   100965,   100963,   100913,   100925,   100964
       7,   100947,   100942,   100961,   100966,   100946,   100943,   100962,   100965
       8,   100927,   100918,   100947,   100966,   100926,   100917,   100946,   100965
       9,   100961,   100911,   100927,   100966,   100962,   100912,   100926,   100965
      10,   100948,   100941,   100960,   100967,   100947,   100942,   100961,   100966
      11,   100928,   100919,   100948,   100967,   100927,   100918,   100947,   100966
      12,   100960,   100910,   100928,   100967,   100961,   100911,   100927,   100966
      13,   100949,   100940,   100959,   100968,   100948,   100941,   100960,   100967
      14,   100929,   100920,   100949,   100968,   100928,   100919,   100948,   100967
      15,   100959,   100909,   100929,   100968,   100960,   100910,   100928,   100967
      16,   100950,   100939,   100958,   100969,   100949,   100940,   100959,   100968
      17,   100930,   100921,   100950,   100969,   100929,   100920,   100949,   100968
      18,   100958,   100908,   100930,   100969,   100959,   100909,   100929,   100968
      19,   100951,   100938,   100957,   100970,   100950,   100939,   100958,   100969
      20,   100931,   100922,   100951,   100970,   100930,   100921,   100950,   100969
      21,   100957,   100907,   100931,   100970,   100958,   100908,   100930,   100969
      22,   100952,   100937,   100956,   100971,   100951,   100938,   100957,   100970
      23,   100932,   100923,   100952,   100971,   100931,   100922,   100951,   100970
      24,   100956,   100906,   100932,   100971,   100957,   100907,   100931,   100970
      25,   100953,   100936,   100955,   100972,   100952,   100937,   100956,   100971
      26,   100933,   100924,   100953,   100972,   100932,   100923,   100952,   100971
      27,   100955,   100905,   100933,   100972,   100956,   100906,   100932,   100971
      28,   100935,   100934,   100954,   100973,   100953,   100936,   100955,   100972
      29,   100915,   100914,   100935,   100973,   100933,   100924,   100953,   100972
      30,   100954,   100904,   100915,   100973,   100955,   100905,   100933,   100972
      31,   100899,   100879,   100885,   100900,   100874,   100869,   100871,   100875
      32,   100885,   100882,   100893,   100900,   100871,   100870,   100873,   100875
      33,   100893,   100892,   100899,   100900,   100873,   100872,   100874,   100875
      34,   100898,   100878,   100886,   100901,   100899,   100879,   100885,   100900
      35,   100886,   100883,   100894,   100901,   100885,   100882,   100893,   100900
      36,   100894,   100891,   100898,   100901,   100893,   100892,   100899,   100900
      37,   100897,   100877,   100887,   100902,   100898,   100878,   100886,   100901
      38,   100887,   100884,   100895,   100902,   100886,   100883,   100894,   100901
      39,   100895,   100890,   100897,   100902,   100894,   100891,   100898,   100901
      40,   100896,   100876,   100881,   100903,   100897,   100877,   100887,   100902
      41,   100881,   100880,   100889,   100903,   100887,   100884,   100895,   100902
      42,   100889,   100888,   100896,   100903,   100895,   100890,   100897,   100902
      43,   100873,   100872,   100874,   100875,   100838,   100837,   100839,   100840
      44,   100871,   100870,   100873,   100875,   100836,   100835,   100838,   100840
      45,   100874,   100869,   100871,   100875,   100839,   100834,   100836,   100840
      46,   100838,   100837,   100839,   100840,   100860,   100854,   100862,   100865
      47,   100836,   100835,   100838,   100840,   100852,   100848,   100860,   100865
      48,   100839,   100834,   100836,   100840,   100862,   100842,   100852,   100865
      49,   100860,   100854,   100862,   100865,   100859,   100855,   100863,   100866
      50,   100852,   100848,   100860,   100865,   100851,   100847,   100859,   100866
      51,   100862,   100842,   100852,   100865,   100863,   100843,   100851,   100866
      52,   100859,   100855,   100863,   100866,   100858,   100856,   100864,   100867
      53,   100851,   100847,   100859,   100866,   100850,   100846,   100858,   100867
      54,   100863,   100843,   100851,   100866,   100864,   100844,   100850,   100867
      55,   100858,   100856,   100864,   100867,   100857,   100853,   100861,   100868
      56,   100850,   100846,   100858,   100867,   100849,   100845,   100857,   100868
      57,   100864,   100844,   100850,   100867,   100861,   100841,   100849,   100868
      58,   102120,   102111,   102138,   102139,   102094,   102093,   102101,   102108
      59,   100925,   100913,   102120,   102139,   100881,   100876,   102094,   102108
      60,   102138,   100916,   100925,   102139,   102101,   100880,   100881,   102108
      61,   102121,   102112,   102137,   102140,   102120,   102111,   102138,   102139
      62,   100926,   100912,   102121,   102140,   100925,   100913,   102120,   102139
      63,   102137,   100917,   100926,   102140,   102138,   100916,   100925,   102139
      64,   102122,   102113,   102136,   102141,   102121,   102112,   102137,   102140
      65,   100927,   100911,   102122,   102141,   100926,   100912,   102121,   102140
      66,   102136,   100918,   100927,   102141,   102137,   100917,   100926,   102140
      67,   102123,   102114,   102135,   102142,   102122,   102113,   102136,   102141
      68,   100928,   100910,   102123,   102142,   100927,   100911,   102122,   102141
      69,   102135,   100919,   100928,   102142,   102136,   100918,   100927,   102141
      70,   102124,   102115,   102134,   102143,   102123,   102114,   102135,   102142
      71,   100929,   100909,   102124,   102143,   100928,   100910,   102123,   102142
      72,   102134,   100920,   100929,   102143,   102135,   100919,   100928,   102142
      73,   102125,   102116,   102133,   102144,   102124,   102115,   102134,   102143
      74,   100930,   100908,   102125,   102144,   100929,   100909,   102124,   102143
      75,   102133,   100921,   100930,   102144,   102134,   100920,   100929,   102143
      76,   102126,   102117,   102132,   102145,   102125,   102116,   102133,   102144
      77,   100931,   100907,   102126,   102145,   100930,   100908,   102125,   102144
      78,   102132,   100922,   100931,   102145,   102133,   100921,   100930,   102144
      79,   102127,   102118,   102131,   102146,   102126,   102117,   102132,   102145
      80,   100932,   100906,   102127,   102146,   100931,   100907,   102126,   102145
      81,   102131,   100923,   100932,   102146,   102132,   100922,   100931,   102145
      82,   102128,   102119,   102130,   102147,   102127,   102118,   102131,   102146
      83,   100933,   100905,   102128,   102147,   100932,   100906,   102127,   102146
      84,   102130,   100924,   100933,   102147,   102131,   100923,   100932,   102146
      85,   102110,   102109,   102129,   102148,   102128,   102119,   102130,   102147
      86,   100915,   100904,   102110,   102148,   100933,   100905,   102128,   102147
      87,   102129,   100914,   100915,   102148,   102130,   100924,   100933,   102147
      88,   102104,   100882,   100885,   102105,   102091,   100870,   100871,   102092
      89,   100885,   100879,   102098,   102105,   100871,   100869,   102090,   102092
      90,   102098,   102095,   102104,   102105,   102090,   102089,   102091,   102092
      91,   102103,   100883,   100886,   102106,   102104,   100882,   100885,   102105
      92,   100886,   100878,   102099,   102106,   100885,   100879,   102098,   102105
      93,   102099,   102096,   102103,   102106,   102098,   102095,   102104,   102105
      94,   102102,   100884,   100887,   102107,   102103,   100883,   100886,   102106
      95,   100887,   100877,   102100,   102107,   100886,   100878,   102099,   102106
      96,   102100,   102097,   102102,   102107,   102099,   102096,   102103,   102106
      97,   102101,   100880,   100881,   102108,   102102,   100884,   100887,   102107
      98,   100881,   100876,   102094,   102108,   100887,   100877,   102100,   102107
      99,   102094,   102093,   102101,   102108,   102100,   102097,   102102,   102107
     100,   102090,   102089,   102091,   102092,   102070,   102069,   102071,   102072
     101,   100871,   100869,   102090,   102092,   100836,   100834,   102070,   102072
     102,   102091,   100870,   100871,   102092,   102071,   100835,   100836,   102072
     103,   102070,   102069,   102071,   102072,   102080,   102076,   102082,   102085
     104,   100836,   100834,   102070,   102072,   100852,   100842,   102080,   102085
     105,   102071,   100835,   100836,   102072,   102082,   100848,   100852,   102085
     106,   102080,   102076,   102082,   102085,   102079,   102075,   102083,   102086
     107,   100852,   100842,   102080,   102085,   100851,   100843,   102079,   102086
     108,   102082,   100848,   100852,   102085,   102083,   100847,   100851,   102086
     109,   102079,   102075,   102083,   102086,   102078,   102074,   102084,   102087
     110,   100851,   100843,   102079,   102086,   100850,   100844,   102078,   102087
     111,   102083,   100847,   100851,   102086,   102084,   100846,   100850,   102087
     112,   102078,   102074,   102084,   102087,   102077,   102073,   102081,   102088
     113,   100850,   100844,   102078,   102087,   100849,   100841,   102077,   102088
     114,   102084,   100846,   100850,   102087,   102081,   100845,   100849,   102088
*ELEMENT, TYPE=C3D8, ELSET=plate
     115,   101090,   101092,   101093,   101097,   100997,   100999,   101000,   101004
     116,   101089,   101090,   101097,   101091,   100996,   100997,   101004,   100998
     117,   101096,   101091,   101097,   101095,   101003,   100998,   101004,   101002
     118,   101094,   101095,   101097,   101093,   101001,   101002,   101004,   101000
     119,   101087,   101088,   101091,   101096,   100994,   100995,   100998,   101003
     120,   101081,   101082,   101087,   101096,   100991,   100990,   100994,   101003
     121,   101080,   101081,   101096,   101095,   100992,   100991,   101003,   101002
     122,   101079,   101080,   101095,   101094,   100993,   100992,   101002,   101001
     123,   101086,   101078,   101079,   101094,   100986,   100985,   100993,   101001
     124,   101085,   101086,   101094,   101093,   100987,   100986,   101001,   101000
     125,   101084,   101085,   101093,   101092,   100988,   100987,   101000,   100999
     126,   101083,   101084,   101092,   101090,   100989,   100988,   100999,   100997
     127,   101073,   101072,   101089,   101091,   100980,   100981,   100996,   100998
     128,   101074,   101073,   101091,   101088,   100979,   100980,   100998,   100995
     129,   101077,   101075,   101083,   101090,   100983,   100982,   100989,   100997
     130,   101076,   101077,   101090,   101089,   100984,   100983,   100997,   100996
     131,   101071,   101076,   101089,   101072,   100978,   100984,   100996,   100981
     132,   101069,   101067,   101074,   101088,   100977,   100975,   100979,   100995
     133,   101070,   101069,   101088,   101087,   100976,   100977,   100995,   100994
     134,   101068,   101070,   101087,   101082,   100974,   100976,   100994,   100990
     135,   100997,   100999,   101000,   101004,   101048,   101050,   101051,   101055
     136,   100996,   100997,   101004,   100998,   101047,   101048,   101055,   101049
     137,   101003,   100998,   101004,   101002,   101054,   101049,   101055,   101053
     138,   101001,   101002,   101004,   101000,   101052,   101053,   101055,   101051
     139,   100994,   100995,   100998,   101003,   101045,   101046,   101049,   101054
     140,   100991,   100990,   100994,   101003,   101042,   101041,   101045,   101054
     141,   100992,   100991,   101003,   101002,   101043,   101042,   101054,   101053
     142,   100993,   100992,   101002,   101001,   101044,   101043,   101053,   101052
     143,   100986,   100985,   100993,   101001,   101036,   101028,   101044,   101052
     144,   100987,   100986,   101001,   101000,   101035,   101036,   101052,   101051
     145,   100988,   100987,   101000,   100999,   101034,   101035,   101051,   101050
     146,   100989,   100988,   100999,   100997,   101033,   101034,   101050,   101048
     147,   100980,   100981,   100996,   100998,   101019,   101020,   101047,   101049
     148,   100979,   100980,   100998,   100995,   101018,   101019,   101049,   101046
     149,   100983,   100982,   100989,   100997,   101026,   101022,   101033,   101048
     150,   100984,   100983,   100997,   100996,   101025,   101026,   101048,   101047
     151,   100978,   100984,   100996,   100981,   101014,   101025,   101047,   101020
     152,   100977,   100975,   100979,   100995,   101012,   101006,   101018,   101046
     153,   100976,   100977,   100995,   100994,   101011,   101012,   101046,   101045
     154,   100974,   100976,   100994,   100990,   101010,   101011,   101045,   101041
     155,   101048,   101050,   101051,   101055,   101059,   101061,   101062,   101066
     156,   101047,   101048,   101055,   101049,   101058,   101059,   101066,   101060
     157,   101054,   101049,   101055,   101053,   101065,   101060,   101066,   101064
     158,   101052,   101053,   101055,   101051,   101063,   101064,   101066,   101062
     159,   101045,   101046,   101049,   101054,   101056,   101057,   101060,   101065
     160,   101042,   101041,   101045,   101054,   101038,   101037,   101056,   101065
     161,   101043,   101042,   101054,   101053,   101039,   101038,   101065,   101064
     162,   101044,   101043,   101053,   101052,   101040,   101039,   101064,   101063
     163,   101036,   101028,   101044,   101052,   101032,   101027,   101040,   101063
     164,   101035,   101036,   101052,   101051,   101031,   101032,   101063,   101062
     165,   101034,   101035,   101051,   101050,   101030,   101031,   101062,   101061
     166,   101033,   101034,   101050,   101048,   101029,   101030,   101061,   101059
     167,   101019,   101020,   101047,   101049,   101016,   101017,   101058,   101060
     168,   101018,   101019,   101049,   101046,   101015,   101016,   101060,   101057
     169,   101026,   101022,   101033,   101048,   101023,   101021,   101029,   101059
     170,   101025,   101026,   101048,   101047,   101024,   101023,   101059,   101058
     171,   101014,   101025,   101047,   101020,   101013,   101024,   101058,   101017
     172,   101012,   101006,   101018,   101046,   101009,   101005,   101015,   101057
     173,   101011,   101012,   101046,   101045,   101008,   101009,   101057,   101056
     174,   101010,   101011,   101045,   101041,   101007,   101008,   101056,   101037
     175,   101067,   102798,   102804,   101074,   100975,   102796,   102812,   100979
     176,   102798,   102797,   102803,   102804,   102796,   102795,   102811,   102812
     177,   101074,   102804,   102805,   101073,   100979,   102812,   102813,   100980
     178,   102804,   102803,   102802,   102805,   102812,   102811,   102810,   102813
     179,   101073,   102805,   102806,   101072,   100980,   102813,   102814,   100981
     180,   102805,   102802,   102801,   102806,   102813,   102810,   102809,   102814
     181,   101072,   102806,   102800,   101071,   100981,   102814,   102808,   100978
     182,   102806,   102801,   102799,   102800,   102814,   102809,   102807,   102808
     183,   102815,   102823,   102829,   102817,   102816,   102826,   102832,   102818
     184,   102823,   102824,   102830,   102829,   102826,   102827,   102833,   102832
     185,   102824,   102825,   102831,   102830,   102827,   102828,   102834,   102833
     186,   102825,   102819,   102821,   102831,   102828,   102820,   102822,   102834
     187,   102817,   102829,   102811,   102795,   102818,   102832,   102812,   102796
     188,   102829,   102830,   102810,   102811,   102832,   102833,   102813,   102812
     189,   102830,   102831,   102809,   102810,   102833,   102834,   102814,   102813
     190,   102831,   102821,   102807,   102809,   102834,   102822,   102808,   102814
     191,   102816,   102826,   102832,   102818,   101005,   101015,   101018,   101006
     192,   102826,   102827,   102833,   102832,   101015,   101016,   101019,   101018
     193,   102827,   102828,   102834,   102833,   101016,   101017,   101020,   101019
     194,   102828,   102820,   102822,   102834,   101017,   101013,   101014,   101020
     195,   102818,   102832,   102812,   102796,   101006,   101018,   100979,   100975
     196,   102832,   102833,   102813,   102812,   101018,   101019,   100980,   100979
     197,   102833,   102834,   102814,   102813,   101019,   101020,   100981,   100980
     198,   102834,   102822,   102808,   102814,   101020,   101014,   100978,   100981
     199,   102247,   102251,   102252,   102256,   102166,   102170,   102171,   102175
     200,   102246,   102247,   102256,   102250,   102165,   102166,   102175,   102169
     201,   102255,   102250,   102256,   102254,   102174,   102169,   102175,   102173
     202,   102253,   102254,   102256,   102252,   102172,   102173,   102175,   102171
     203,   102248,   102249,   102250,   102255,   102167,   102168,   102169,   102174
     204,   102243,   102242,   102248,   102255,   102156,   102155,   102167,   102174
     205,   102244,   102243,   102255,   102254,   102157,   102156,   102174,   102173
     206,   102245,   102244,   102254,   102253,   102158,   102157,   102173,   102172
     207,   102234,   102230,   102245,   102253,   102150,   102149,   102158,   102172
     208,   102233,   102234,   102253,   102252,   102151,   102150,   102172,   102171
     209,   102232,   102233,   102252,   102251,   102152,   102151,   102171,   102170
     210,   102231,   102232,   102251,   102247,   102153,   102152,   102170,   102166
     211,   102240,   102239,   102246,   102250,   102163,   102164,   102165,   102169
     212,   102241,   102240,   102250,   102249,   102162,   102163,   102169,   102168
     213,   102238,   102235,   102241,   102249,   102160,   102159,   102162,   102168
     214,   102237,   102238,   102249,   102248,   102161,   102160,   102168,   102167
     215,   102236,   102237,   102248,   102242,   102154,   102161,   102167,   102155
     216,   101070,   101068,   102231,   102247,   100976,   100974,   102153,   102166
     217,   101069,   101070,   102247,   102246,   100977,   100976,   102166,   102165
     218,   101067,   101069,   102246,   102239,   100975,   100977,   102165,   102164
     219,   102166,   102170,   102171,   102175,   102209,   102213,   102214,   102218
     220,   102165,   102166,   102175,   102169,   102208,   102209,   102218,   102212
     221,   102174,   102169,   102175,   102173,   102217,   102212,   102218,   102216
     222,   102172,   102173,   102175,   102171,   102215,   102216,   102218,   102214
     223,   102167,   102168,   102169,   102174,   102210,   102211,   102212,   102217
     224,   102156,   102155,   102167,   102174,   102205,   102204,   102210,   102217
     225,   102157,   102156,   102174,   102173,   102206,   102205,   102217,   102216
     226,   102158,   102157,   102173,   102172,   102207,   102206,   102216,   102215
     227,   102150,   102149,   102158,   102172,   102185,   102177,   102207,   102215
     228,   102151,   102150,   102172,   102171,   102184,   102185,   102215,   102214
     229,   102152,   102151,   102171,   102170,   102183,   102184,   102214,   102213
     230,   102153,   102152,   102170,   102166,   102182,   102183,   102213,   102209
     231,   102163,   102164,   102165,   102169,   102198,   102197,   102208,   102212
     232,   102162,   102163,   102169,   102168,   102199,   102198,   102212,   102211
     233,   102160,   102159,   102162,   102168,   102192,   102187,   102199,   102211
     234,   102161,   102160,   102168,   102167,   102193,   102192,   102211,   102210
     235,   102154,   102161,   102167,   102155,   102191,   102193,   102210,   102204
     236,   100976,   100974,   102153,   102166,   101011,   101010,   102182,   102209
     237,   100977,   100976,   102166,   102165,   101012,   101011,   102209,   102208
     238,   100975,   100977,   102165,   102164,   101006,   101012,   102208,   102197
     239,   102209,   102213,   102214,   102218,   102220,   102224,   102225,   102229
     240,   102208,   102209,   102218,   102212,   102219,   102220,   102229,   102223
     241,   102217,   102212,   102218,   102216,   102228,   102223,   102229,   102227
     242,   102215,   102216,   102218,   102214,   102226,   102227,   102229,   102225
     243,   102210,   102211,   102212,   102217,   102221,   102222,   102223,   102228
     244,   102205,   102204,   102210,   102217,   102201,   102200,   102221,   102228
     245,   102206,   102205,   102217,   102216,   102202,   102201,   102228,   102227
     246,   102207,   102206,   102216,   102215,   102203,   102202,   102227,   102226
     247,   102185,   102177,   102207,   102215,   102178,   102176,   102203,   102226
     248,   102184,   102185,   102215,   102214,   102179,   102178,   102226,   102225
     249,   102183,   102184,   102214,   102213,   102180,   102179,   102225,   102224
     250,   102182,   102183,   102213,   102209,   102181,   102180,   102224,   102220
     251,   102198,   102197,   102208,   102212,   102195,   102196,   102219,   102223
     252,   102199,   102198,   102212,   102211,   102194,   102195,   102223,   102222
     253,   102192,   102187,   102199,   102211,   102189,   102186,   102194,   102222
     254,   102193,   102192,   102211,   102210,   102190,   102189,   102222,   102221
     255,   102191,   102193,   102210,   102204,   102188,   102190,   102221,   102200
     256,   101011,   101010,   102182,   102209,   101008,   101007,   102181,   102220
     257,   101012,   101011,   102209,   102208,   101009,   101008,   102220,   102219
     258,   101006,   101012,   102208,   102197,   101005,   101009,   102219,   102196
     259,   102159,   103125,   103129,   102235,   102162,   103128,   103132,   102241
     260,   103125,   103117,   103121,   103129,   103128,   103120,   103124,   103132
     261,   102162,   103128,   103132,   102241,   102163,   103127,   103131,   102240
     262,   103128,   103120,   103124,   103132,   103127,   103119,   103123,   103131
     263,   102163,   103127,   103131,   102240,   102164,   103126,   103130,   102239
     264,   103127,   103119,   103123,   103131,   103126,   103118,   103122,   103130
     265,   102164,   103126,   103130,   102239,   100975,   102796,   102798,   101067
     266,   103126,   103118,   103122,   103130,   102796,   102795,   102797,   102798
     267,   102186,   103141,   103145,   102187,   102194,   103144,   103146,   102199
     268,   103141,   103133,   103137,   103145,   103144,   103134,   103140,   103146
     269,   102187,   103145,   103125,   102159,   102199,   103146,   103128,   102162
     270,   103145,   103137,   103117,   103125,   103146,   103140,   103120,   103128
     271,   102194,   103144,   103146,   102199,   102195,   103143,   103147,   102198
     272,   103144,   103134,   103140,   103146,   103143,   103135,   103139,   103147
     273,   102199,   103146,   103128,   102162,   102198,   103147,   103127,   102163
     274,   103146,   103140,   103120,   103128,   103147,   103139,   103119,   103127
     275,   102195,   103143,   103147,   102198,   102196,   103142,   103148,   102197
     276,   103143,   103135,   103139,   103147,   103142,   103136,   103138,   103148
     277,   102198,   103147,   103127,   102163,   102197,   103148,   103126,   102164
     278,   103147,   103139,   103119,   103127,   103148,   103138,   103118,   103126
     279,   102196,   103142,   103148,   102197,   101005,   102816,   102818,   101006
     280,   103142,   103136,   103138,   103148,   102816,   102815,   102817,   102818
     281,   102197,   103148,   103126,   102164,   101006,   102818,   102796,   100975
     282,   103148,   103138,   103118,   103126,   102818,   102817,   102795,   102796
*ELEMENT, TYPE=C3D8, ELSET=mortar
     283,   102429,   102446,   102478,   102477,   102430,   102476,   102510,   102494
     284,   102446,   102445,   102479,   102478,   102476,   102475,   102511,   102510
     285,   102445,   102444,   102480,   102479,   102475,   102474,   102512,   102511
     286,   102444,   102443,   102481,   102480,   102474,   102473,   102513,   102512
     287,   102443,   102442,   102482,   102481,   102473,   102472,   102514,   102513
     288,   102442,   102441,   102483,   102482,   102472,   102471,   102515,   102514
     289,   102441,   102440,   102484,   102483,   102471,   102470,   102516,   102515
     290,   102440,   102439,   102485,   102484,   102470,   102469,   102517,   102516
     291,   102439,   102438,   102486,   102485,   102469,   102468,   102518,   102517
     292,   102438,   102437,   102487,   102486,   102468,   102467,   102519,   102518
     293,   102437,   102436,   102488,   102487,   102467,   102466,   102520,   102519
     294,   102436,   102435,   102489,   102488,   102466,   102465,   102521,   102520
     295,   102435,   102434,   102490,   102489,   102465,   102464,   102522,   102521
     296,   102434,   102433,   102491,   102490,   102464,   102463,   102523,   102522
     297,   102433,   102432,   102492,   102491,   102463,   102462,   102524,   102523
     298,   102432,   102423,   102426,   102492,   102462,   102425,   102427,   102524
     299,   102430,   102476,   102510,   102494,   102431,   102461,   102495,   102493
     300,   102476,   102475,   102511,   102510,   102461,   102460,   102496,   102495
     301,   102475,   102474,   102512,   102511,   102460,   102459,   102497,   102496
     302,   102474,   102473,   102513,   102512,   102459,   102458,   102498,   102497
     303,   102473,   102472,   102514,   102513,   102458,   102457,   102499,   102498
     304,   102472,   102471,   102515,   102514,   102457,   102456,   102500,   102499
     305,   102471,   102470,   102516,   102515,   102456,   102455,   102501,   102500
     306,   102470,   102469,   102517,   102516,   102455,   102454,   102502,   102501
     307,   102469,   102468,   102518,   102517,   102454,   102453,   102503,   102502
     308,   102468,   102467,   102519,   102518,   102453,   102452,   102504,   102503
     309,   102467,   102466,   102520,   102519,   102452,   102451,   102505,   102504
     310,   102466,   102465,   102521,   102520,   102451,   102450,   102506,   102505
     311,   102465,   102464,   102522,   102521,   102450,   102449,   102507,   102506
     312,   102464,   102463,   102523,   102522,   102449,   102448,   102508,   102507
     313,   102463,   102462,   102524,   102523,   102448,   102447,   102509,   102508
     314,   102462,   102425,   102427,   102524,   102447,   102424,   102428,   102509
     315,   102431,   102461,   102495,   102493,   102389,   102406,   102408,   102390
     316,   102461,   102460,   102496,   102495,   102406,   102405,   102409,   102408
     317,   102460,   102459,   102497,   102496,   102405,   102404,   102410,   102409
     318,   102459,   102458,   102498,   102497,   102404,   102403,   102411,   102410
     319,   102458,   102457,   102499,   102498,   102403,   102402,   102412,   102411
     320,   102457,   102456,   102500,   102499,   102402,   102401,   102413,   102412
     321,   102456,   102455,   102501,   102500,   102401,   102400,   102414,   102413
     322,   102455,   102454,   102502,   102501,   102400,   102399,   102415,   102414
     323,   102454,   102453,   102503,   102502,   102399,   102398,   102416,   102415
     324,   102453,   102452,   102504,   102503,   102398,   102397,   102417,   102416
     325,   102452,   102451,   102505,   102504,   102397,   102396,   102418,   102417
     326,   102451,   102450,   102506,   102505,   102396,   102395,   102419,   102418
     327,   102450,   102449,   102507,   102506,   102395,   102394,   102420,   102419
     328,   102449,   102448,   102508,   102507,   102394,   102393,   102421,   102420
     329,   102448,   102447,   102509,   102508,   102393,   102392,   102422,   102421
     330,   102447,   102424,   102428,   102509,   102392,   102391,   102407,   102422
     331,   102391,   102906,   102854,   102407,   102392,   102921,   102856,   102422
     332,   102906,   102905,   102855,   102854,   102921,   102936,   102871,   102856
     333,   102905,   102889,   102838,   102855,   102936,   102904,   102839,   102871
     334,   102392,   102921,   102856,   102422,   102393,   102920,   102857,   102421
     335,   102921,   102936,   102871,   102856,   102920,   102935,   102872,   102857
     336,   102936,   102904,   102839,   102871,   102935,   102903,   102840,   102872
     337,   102393,   102920,   102857,   102421,   102394,   102919,   102858,   102420
     338,   102920,   102935,   102872,   102857,   102919,   102934,   102873,   102858
     339,   102935,   102903,   102840,   102872,   102934,   102902,   102841,   102873
     340,   102394,   102919,   102858,   102420,   102395,   102918,   102859,   102419
     341,   102919,   102934,   102873,   102858,   102918,   102933,   102874,   102859
     342,   102934,   102902,   102841,   102873,   102933,   102901,   102842,   102874
     343,   102395,   102918,   102859,   102419,   102396,   102917,   102860,   102418
     344,   102918,   102933,   102874,   102859,   102917,   102932,   102875,   102860
     345,   102933,   102901,   102842,   102874,   102932,   102900,   102843,   102875
     346,   102396,   102917,   102860,   102418,   102397,   102916,   102861,   102417
     347,   102917,   102932,   102875,   102860,   102916,   102931,   102876,   102861
     348,   102932,   102900,   102843,   102875,   102931,   102899,   102844,   102876
     349,   102397,   102916,   102861,   102417,   102398,   102915,   102862,   102416
     350,   102916,   102931,   102876,   102861,   102915,   102930,   102877,   102862
     351,   102931,   102899,   102844,   102876,   102930,   102898,   102845,   102877
     352,   102398,   102915,   102862,   102416,   102399,   102914,   102863,   102415
     353,   102915,   102930,   102877,   102862,   102914,   102929,   102878,   102863
     354,   102930,   102898,   102845,   102877,   102929,   102897,   102846,   102878
     355,   102399,   102914,   102863,   102415,   102400,   102913,   102864,   102414
     356,   102914,   102929,   102878,   102863,   102913,   102928,   102879,   102864
     357,   102929,   102897,   102846,   102878,   102928,   102896,   102847,   102879
     358,   102400,   102913,   102864,   102414,   102401,   102912,   102865,   102413
     359,   102913,   102928,   102879,   102864,   102912,   102927,   102880,   102865
     360,   102928,   102896,   102847,   102879,   102927,   102895,   102848,   102880
     361,   102401,   102912,   102865,   102413,   102402,   102911,   102866,   102412
     362,   102912,   102927,   102880,   102865,   102911,   102926,   102881,   102866
     363,   102927,   102895,   102848,   102880,   102926,   102894,   102849,   102881
     364,   102402,   102911,   102866,   102412,   102403,   102910,   102867,   102411
     365,   102911,   102926,   102881,   102866,   102910,   102925,   102882,   102867
     366,   102926,   102894,   102849,   102881,   102925,   102893,   102850,   102882
     367,   102403,   102910,   102867,   102411,   102404,   102909,   102868,   102410
     368,   102910,   102925,   102882,   102867,   102909,   102924,   102883,   102868
     369,   102925,   102893,   102850,   102882,   102924,   102892,   102851,   102883
     370,   102404,   102909,   102868,   102410,   102405,   102908,   102869,   102409
     371,   102909,   102924,   102883,   102868,   102908,   102923,   102884,   102869
     372,   102924,   102892,   102851,   102883,   102923,   102891,   102852,   102884
     373,   102405,   102908,   102869,   102409,   102406,   102907,   102870,   102408
     374,   102908,   102923,   102884,   102869,   102907,   102922,   102885,   102870
     375,   102923,   102891,   102852,   102884,   102922,   102890,   102853,   102885
     376,   102406,   102907,   102870,   102408,   102389,   102887,   102837,   102390
     377,   102907,   102922,   102885,   102870,   102887,   102888,   102836,   102837
     378,   102922,   102890,   102853,   102885,   102888,   102886,   102835,   102836
*ELEMENT, TYPE=C3D8, ELSET=washer
     379,   101130,   101132,   101137,   101135,   101111,   101112,   101117,   101116
     380,   101137,   101126,   101125,   101135,   101117,   101103,   101104,   101116
     381,   101132,   101127,   101126,   101137,   101112,   101102,   101103,   101117
     382,   101131,   101130,   101135,   101134,   101110,   101111,   101116,   101115
     383,   101133,   101131,   101134,   101136,   101113,   101110,   101115,   101114
     384,   101123,   101122,   101133,   101136,   101106,   101107,   101113,   101114
     385,   101124,   101123,   101136,   101134,   101105,   101106,   101114,   101115
     386,   101125,   101124,   101134,   101135,   101104,   101105,   101115,   101116
     387,   101129,   101128,   101131,   101133,   101109,   101108,   101110,   101113
     388,   101121,   101129,   101133,   101122,   101101,   101109,   101113,   101107
     389,   101120,   101118,   101127,   101132,   101100,   101099,   101102,   101112
     390,   101119,   101120,   101132,   101130,   101098,   101100,   101112,   101111
     391,   102275,   102286,   102290,   102288,   102259,   102269,   102273,   102272
     392,   102290,   102283,   102282,   102288,   102273,   102263,   102264,   102272
     393,   102286,   102284,   102283,   102290,   102269,   102262,   102263,   102273
     394,   102276,   102275,   102288,   102287,   102258,   102259,   102272,   102271
     395,   102285,   102276,   102287,   102289,   102268,   102258,   102271,   102270
     396,   102280,   102279,   102285,   102289,   102266,   102267,   102268,   102270
     397,   102281,   102280,   102289,   102287,   102265,   102266,   102270,   102271
     398,   102282,   102281,   102287,   102288,   102264,   102265,   102271,   102272
     399,   102278,   102277,   102284,   102286,   102261,   102260,   102262,   102269
     400,   102274,   102278,   102286,   102275,   102257,   102261,   102269,   102259
     401,   101120,   101119,   102276,   102285,   101100,   101098,   102258,   102268
     402,   101118,   101120,   102285,   102279,   101099,   101100,   102268,   102267
*ELEMENT, TYPE=C3D8, ELSET=nut
     403,   101171,   101199,   101186,   101189,   101149,   101150,   101142,   101143
     404,   101189,   101192,   101174,   101171,   101143,   101144,   101148,   101149
     405,   101198,   101176,   101166,   101174,   101146,   101145,   101147,   101148
     406,   101183,   101198,   101174,   101192,   101141,   101146,   101148,   101144
     407,   101160,   101157,   101186,   101199,   101140,   101139,   101142,   101150
     408,   101154,   101160,   101199,   101171,   101138,   101140,   101150,   101149
     409,   101170,   101200,   101187,   101190,   101171,   101199,   101186,   101189
     410,   101190,   101193,   101173,   101170,   101189,   101192,   101174,   101171
     411,   101197,   101177,   101165,   101173,   101198,   101176,   101166,   101174
     412,   101184,   101197,   101173,   101193,   101183,   101198,   101174,   101192
     413,   101161,   101158,   101187,   101200,   101160,   101157,   101186,   101199
     414,   101153,   101161,   101200,   101170,   101154,   101160,   101199,   101171
     415,   101169,   101201,   101188,   101191,   101170,   101200,   101187,   101190
     416,   101191,   101194,   101172,   101169,   101190,   101193,   101173,   101170
     417,   101196,   101178,   101164,   101172,   101197,   101177,   101165,   101173
     418,   101185,   101196,   101172,   101194,   101184,   101197,   101173,   101193
     419,   101162,   101159,   101188,   101201,   101161,   101158,   101187,   101200
     420,   101152,   101162,   101201,   101169,   101153,   101161,   101200,   101170
     421,   101167,   101202,   101182,   101181,   101169,   101201,   101188,   101191
     422,   101181,   101180,   101168,   101167,   101191,   101194,   101172,   101169
     423,   101195,   101175,   101163,   101168,   101196,   101178,   101164,   101172
     424,   101179,   101195,   101168,   101180,   101185,   101196,   101172,   101194
     425,   101156,   101155,   101182,   101202,   101162,   101159,   101188,   101201
     426,   101151,   101156,   101202,   101167,   101152,   101162,   101201,   101169
     427,   102334,   102314,   102302,   102308,   102296,   102293,   102291,   102294
     428,   102311,   102327,   102330,   102337,   102292,   102298,   102299,   102300
     429,   102324,   102327,   102311,   102314,   102297,   102298,   102292,   102293
     430,   102318,   102324,   102314,   102334,   102295,   102297,   102293,   102296
     431,   101160,   101154,   102311,   102337,   101140,   101138,   102292,   102300
     432,   101157,   101160,   102337,   102330,   101139,   101140,   102300,   102299
     433,   102335,   102315,   102303,   102307,   102334,   102314,   102302,   102308
     434,   102312,   102328,   102331,   102338,   102311,   102327,   102330,   102337
     435,   102325,   102328,   102312,   102315,   102324,   102327,   102311,   102314
     436,   102319,   102325,   102315,   102335,   102318,   102324,   102314,   102334
     437,   101161,   101153,   102312,   102338,   101160,   101154,   102311,   102337
     438,   101158,   101161,   102338,   102331,   101157,   101160,   102337,   102330
     439,   102336,   102316,   102304,   102306,   102335,   102315,   102303,   102307
     440,   102313,   102329,   102332,   102339,   102312,   102328,   102331,   102338
     441,   102326,   102329,   102313,   102316,   102325,   102328,   102312,   102315
     442,   102320,   102326,   102316,   102336,   102319,   102325,   102315,   102335
     443,   101162,   101152,   102313,   102339,   101161,   101153,   102312,   102338
     444,   101159,   101162,   102339,   102332,   101158,   101161,   102338,   102331
     445,   102333,   102309,   102301,   102305,   102336,   102316,   102304,   102306
     446,   102310,   102322,   102321,   102340,   102313,   102329,   102332,   102339
     447,   102323,   102322,   102310,   102309,   102326,   102329,   102313,   102316
     448,   102317,   102323,   102309,   102333,   102320,   102326,   102316,   102336
     449,   101156,   101151,   102310,   102340,   101162,   101152,   102313,   102339
     450,   101155,   101156,   102340,   102321,   101159,   101162,   102339,   102332
********************************** N O D E S E T S **********************************
*NSET, NSET=z_symm_steel
  100835,   100837,   100838,   100845,   100846,   100847,
  100848,   100853,   100854,   100855,   100856,   100857,
  100858,   100859,   100860,   100870,   100872,   100873,
  100880,   100882,   100883,   100884,   100888,   100889,
  100890,   100891,   100892,   100893,   100894,   100895,
  100914,   100916,   100917,   100918,   100919,   100920,
  100921,   100922,   100923,   100924,   100934,   100935,
  100936,   100937,   100938,   100939,   100940,   100941,
  100942,   100943,   100944,   100945,   100946,   100947,
  100948,   100949,   100950,   100951,   100952,   100953,
  100978,   100982,   100983,   100984,   101013,   101014,
  101021,   101022,   101023,   101024,   101025,   101026,
  101071,   101075,   101076,   101077,   101101,   101108,
  101109,   101121,   101128,   101129,   101145,   101147,
  101163,   101164,   101165,   101166,   101175,   101176,
  101177,   101178,   102069,   102071,   102073,   102074,
  102075,   102076,   102081,   102082,   102083,   102084,
  102089,   102091,   102093,   102095,   102096,   102097,
  102101,   102102,   102103,   102104,   102109,   102111,
  102112,   102113,   102114,   102115,   102116,   102117,
  102118,   102119,   102129,   102130,   102131,   102132,
  102133,   102134,   102135,   102136,   102137,   102138,
  102154,   102159,   102160,   102161,   102186,   102187,
  102188,   102189,   102190,   102191,   102192,   102193,
  102235,   102236,   102237,   102238,   102257,   102260,
  102261,   102274,   102277,   102278,   102291,   102294,
  102301,   102302,   102303,   102304,   102305,   102306,
  102307,   102308,   102423,   102426,   102429,   102432,
  102433,   102434,   102435,   102436,   102437,   102438,
  102439,   102440,   102441,   102442,   102443,   102444,
  102445,   102446,   102477,   102478,   102479,   102480,
  102481,   102482,   102483,   102484,   102485,   102486,
  102487,   102488,   102489,   102490,   102491,   102492,
  102799,   102800,   102807,   102808,   102819,   102820,
  102821,   102822,   102835,   102838,   102839,   102840,
  102841,   102842,   102843,   102844,   102845,   102846,
  102847,   102848,   102849,   102850,   102851,   102852,
  102853,   102886,   102889,   102890,   102891,   102892,
  102893,   102894,   102895,   102896,   102897,   102898,
  102899,   102900,   102901,   102902,   102903,   102904,
  103117,   103121,   103125,   103129,   103133,   103137,
  103141,   103145,
*NSET, NSET=plate_left_loading
  102149,   102154,   102155,   102156,   102157,   102158,
********************************** S I D E S E T S **********************************
*ELSET, ELSET=plate_bottom_S1
     115,     116,     117,     118,     119,     120,     121,     122,     123,     124,
     125,     126,     127,     128,     129,     130,     131,     132,     133,     134,
     175,     176,     177,     178,     179,     180,     181,     182,     199,     200,
     201,     202,     203,     204,     205,     206,     207,     208,     209,     210,
     211,     212,     213,     214,     215,     216,     217,     218
*ELSET, ELSET=plate_bottom_S5
     259,     260,     261,     262,     263,     264,     265,     266
*SURFACE, NAME=plate_bottom, TYPE=ELEMENT
plate_bottom_S1, S1
plate_bottom_S5, S5
*ELSET, ELSET=plate_top_S2
     155,     156,     157,     158,     159,     160,     161,     162,     163,     164,
     165,     166,     167,     168,     169,     170,     171,     172,     173,     174,
     239,     240,     241,     242,     243,     244,     245,     246,     247,     248,
     249,     250,     251,     252,     253,     254,     255,     256,     257,     258
*ELSET, ELSET=plate_top_S3
     183,     184,     185,     186,     191,     192,     193,     194,     267,     268,
     271,     272,     275,     276,     279,     280
*SURFACE, NAME=plate_top, TYPE=ELEMENT
plate_top_S2, S2
plate_top_S3, S3
*ELSET, ELSET=mortar_to_concrete_S3
     283,     284,     285,     286,     287,     288,     289,     290,     291,     292,
     293,     294,     295,     296,     297,     298,     299,     300,     301,     302,
     303,     304,     305,     306,     307,     308,     309,     310,     311,     312,
     313,     314,     315,     316,     317,     318,     319,     320,     321,     322,
     323,     324,     325,     326,     327,     328,     329,     330,     331,     332,
     333,     334,     335,     336,     337,     338,     339,     340,     341,     342,
     343,     344,     345,     346,     347,     348,     349,     350,     351,     352,
     353,     354,     355,     356,     357,     358,     359,     360,     361,     362,
     363,     364,     365,     366,     367,     368,     369,     370,     371,     372,
     373,     374,     375,     376,     377,     378
*SURFACE, NAME=mortar_to_concrete, TYPE=ELEMENT
mortar_to_concrete_S3, S3
*ELSET, ELSET=mortar_to_anchor_S5
     283,     284,     285,     286,     287,     288,     289,     290,     291,     292,
     293,     294,     295,     296,     297,     298,     299,     300,     301,     302,
     303,     304,     305,     306,     307,     308,     309,     310,     311,     312,
     313,     314,     315,     316,     317,     318,     319,     320,     321,     322,
     323,     324,     325,     326,     327,     328,     329,     330,     331,     332,
     333,     334,     335,     336,     337,     338,     339,     340,     341,     342,
     343,     344,     345,     346,     347,     348,     349,     350,     351,     352,
     353,     354,     355,     356,     357,     358,     359,     360,     361,     362,
     363,     364,     365,     366,     367,     368,     369,     370,     371,     372,
     373,     374,     375,     376,     377,     378
*SURFACE, NAME=mortar_to_anchor, TYPE=ELEMENT
mortar_to_anchor_S5, S5
*ELSET, ELSET=anchor_to_mortar_S3
       3,       6,       9,      12,      15,      18,      21,      24,      27,      30,
      58,      61,      64,      67,      70,      73,      76,      79,      82,      85
*ELSET, ELSET=anchor_to_mortar_S4
       1,       4,       7,      10,      13,      16,      19,      22,      25,      28,
      59,      62,      65,      68,      71,      74,      77,      80,      83,      86
*SURFACE, NAME=anchor_to_mortar, TYPE=ELEMENT
anchor_to_mortar_S3, S3
anchor_to_mortar_S4, S4
*ELSET, ELSET=anchor_to_plate_S3
      31,      34,      37,      40,      90,      93,      96,      99
*ELSET, ELSET=anchor_to_plate_S4
      33,      36,      39,      42,      89,      92,      95,      98
*SURFACE, NAME=anchor_to_plate, TYPE=ELEMENT
anchor_to_plate_S3, S3
anchor_to_plate_S4, S4
*ELSET, ELSET=plate_to_anchor_S1
     183,     184,     185,     186,     187,     188,     189,     190
*ELSET, ELSET=plate_to_anchor_S4
     176,     178,     180,     182,     260,     262,     264,     266,     268,     270,
     272,     274,     276,     278,     280,     282
*SURFACE, NAME=plate_to_anchor, TYPE=ELEMENT
plate_to_anchor_S1, S1
plate_to_anchor_S4, S4
*ELSET, ELSET=washer_bottom_S2
     379,     380,     381,     382,     383,     384,     385,     386,     387,     388,
     389,     390,     391,     392,     393,     394,     395,     396,     397,     398,
     399,     400,     401,     402
*SURFACE, NAME=washer_bottom, TYPE=ELEMENT
washer_bottom_S2, S2
*ELSET, ELSET=washer_to_nut_S1
     379,     380,     381,     382,     383,     384,     385,     386,     387,     388,
     389,     390,     391,     392,     393,     394,     395,     396,     397,     398,
     399,     400,     401,     402
*SURFACE, NAME=washer_to_nut, TYPE=ELEMENT
washer_to_nut_S1, S1
*ELSET, ELSET=nut_to_washer_S2
     403,     404,     405,     406,     407,     408,     427,     428,     429,     430,
     431,     432
*SURFACE, NAME=nut_to_washer, TYPE=ELEMENT
nut_to_washer_S2, S2
*ELSET, ELSET=nut_to_anchor_S4
     427,     431,     433,     437,     439,     443,     445,     449
*ELSET, ELSET=nut_to_anchor_S5
     404,     405,     410,     411,     416,     417,     422,     423,     429,     435,
     441,     447
*ELSET, ELSET=nut_to_anchor_S6
     408,     414,     420,     426
*SURFACE, NAME=nut_to_anchor, TYPE=ELEMENT
nut_to_anchor_S4, S4
nut_to_anchor_S5, S5
nut_to_anchor_S6, S6
*ELSET, ELSET=anchor_to_nut_S3
      48,      51,      54,      57,     103,     106,     109,     112
*ELSET, ELSET=anchor_to_nut_S4
      46,      49,      52,      55,     104,     107,     110,     113
*SURFACE, NAME=anchor_to_nut, TYPE=ELEMENT
anchor_to_nut_S3, S3
anchor_to_nut_S4, S4
