********************************** N O D E S **********************************
*NODE, NSET=ALLNODES
  104285, 0.000000e+00,2.380000e+01,-1.000000e+01
  104286, 0.000000e+00,2.380000e+01,0.000000e+00
  104287, 0.000000e+00,2.380000e+01,-7.500000e+00
  104288, 0.000000e+00,2.380000e+01,-5.000000e+00
  104289, 0.000000e+00,2.380000e+01,-2.500000e+00
  104290, 1.000000e+01,2.380000e+01,0.000000e+00
  104291, 8.000000e+00,2.380000e+01,0.000000e+00
  104292, 6.000000e+00,2.380000e+01,0.000000e+00
  104293, 4.000000e+00,2.380000e+01,0.000000e+00
  104294, 2.000000e+00,2.380000e+01,0.000000e+00
  104295, 2.225209e+00,2.380000e+01,-9.749279e+00
  104296, 4.338837e+00,2.380000e+01,-9.009689e+00
  104297, 6.234898e+00,2.380000e+01,-7.818315e+00
  104298, 7.818315e+00,2.380000e+01,-6.234898e+00
  104299, 9.009689e+00,2.380000e+01,-4.338837e+00
  104300, 9.749279e+00,2.380000e+01,-2.225209e+00
  104301, 6.840806e+00,2.380000e+01,-5.309894e+00
  104302, 1.975763e+00,2.380000e+01,-7.049762e+00
  104303, 3.866234e+00,2.380000e+01,-6.482100e+00
  104304, 5.525158e+00,2.380000e+01,-5.824169e+00
  104305, 7.639957e+00,2.380000e+01,-2.024445e+00
  104306, 7.178946e+00,2.380000e+01,-3.870615e+00
  104307, 1.903308e+00,2.380000e+01,-4.640728e+00
  104308, 1.908332e+00,2.380000e+01,-2.295249e+00
  104309, 3.753719e+00,2.380000e+01,-4.285651e+00
  104310, 3.833892e+00,2.380000e+01,-2.139020e+00
  104311, 5.509063e+00,2.380000e+01,-3.978288e+00
  104312, 5.714397e+00,2.380000e+01,-2.015197e+00
  104313, 0.000000e+00,4.180000e+01,-1.000000e+01
  104314, 0.000000e+00,2.508571e+01,-1.000000e+01
  104315, 0.000000e+00,2.637143e+01,-1.000000e+01
  104316, 0.000000e+00,2.765714e+01,-1.000000e+01
  104317, 0.000000e+00,2.894286e+01,-1.000000e+01
  104318, 0.000000e+00,3.022857e+01,-1.000000e+01
  104319, 0.000000e+00,3.151429e+01,-1.000000e+01
  104320, 0.000000e+00,3.280000e+01,-1.000000e+01
  104321, 0.000000e+00,3.408571e+01,-1.000000e+01
  104322, 0.000000e+00,3.537143e+01,-1.000000e+01
  104323, 0.000000e+00,3.665714e+01,-1.000000e+01
  104324, 0.000000e+00,3.794286e+01,-1.000000e+01
  104325, 0.000000e+00,3.922857e+01,-1.000000e+01
  104326, 0.000000e+00,4.051429e+01,-1.000000e+01
  104327, 0.000000e+00,4.180000e+01,0.000000e+00
  104328, 0.000000e+00,4.051429e+01,0.000000e+00
  104329, 0.000000e+00,3.922857e+01,0.000000e+00
  104330, 0.000000e+00,3.794286e+01,0.000000e+00
  104331, 0.000000e+00,3.665714e+01,0.000000e+00
  104332, 0.000000e+00,3.537143e+01,0.000000e+00
  104333, 0.000000e+00,3.408571e+01,0.000000e+00
  104334, 0.000000e+00,3.280000e+01,0.000000e+00
  104335, 0.000000e+00,3.151429e+01,0.000000e+00
  104336, 0.000000e+00,3.022857e+01,0.000000e+00
  104337, 0.000000e+00,2.894286e+01,0.000000e+00
  104338, 0.000000e+00,2.765714e+01,0.000000e+00
  104339, 0.000000e+00,2.637143e+01,0.000000e+00
  104340, 0.000000e+00,2.508571e+01,0.000000e+00
  104341, 0.000000e+00,4.180000e+01,-7.500000e+00
  104342, 0.000000e+00,4.180000e+01,-5.000000e+00
  104343, 0.000000e+00,4.180000e+01,-2.500000e+00
  104344, 0.000000e+00,4.051429e+01,-7.500000e+00
  104345, 0.000000e+00,3.922857e+01,-7.500000e+00
  104346, 0.000000e+00,3.794286e+01,-7.500000e+00
  104347, 0.000000e+00,3.665714e+01,-7.500000e+00
  104348, 0.000000e+00,3.537143e+01,-7.500000e+00
  104349, 0.000000e+00,3.408571e+01,-7.500000e+00
  104350, 0.000000e+00,3.280000e+01,-7.500000e+00
  104351, 0.000000e+00,3.151429e+01,-7.500000e+00
  104352, 0.000000e+00,3.022857e+01,-7.500000e+00
  104353, 0.000000e+00,2.894286e+01,-7.500000e+00
  104354, 0.000000e+00,2.765714e+01,-7.500000e+00
  104355, 0.000000e+00,2.637143e+01,-7.500000e+00
  104356, 0.000000e+00,2.508571e+01,-7.500000e+00
  104357, 0.000000e+00,4.051429e+01,-5.000000e+00
  104358, 0.000000e+00,3.922857e+01,-5.000000e+00
  104359, 0.000000e+00,3.794286e+01,-5.000000e+00
  104360, 0.000000e+00,3.665714e+01,-5.000000e+00
  104361, 0.000000e+00,3.537143e+01,-5.000000e+00
  104362, 0.000000e+00,3.408571e+01,-5.000000e+00
  104363, 0.000000e+00,3.280000e+01,-5.000000e+00
  104364, 0.000000e+00,3.151429e+01,-5.000000e+00
  104365, 0.000000e+00,3.022857e+01,-5.000000e+00
  104366, 0.000000e+00,2.894286e+01,-5.000000e+00
  104367, 0.000000e+00,2.765714e+01,-5.000000e+00
  104368, 0.000000e+00,2.637143e+01,-5.000000e+00
  104369, 0.000000e+00,2.508571e+01,-5.000000e+00
  104370, 0.000000e+00,4.051429e+01,-2.500000e+00
  104371, 0.000000e+00,3.922857e+01,-2.500000e+00
  104372, 0.000000e+00,3.794286e+01,-2.500000e+00
  104373, 0.000000e+00,3.665714e+01,-2.500000e+00
  104374, 0.000000e+00,3.537143e+01,-2.500000e+00
  104375, 0.000000e+00,3.408571e+01,-2.500000e+00
  104376, 0.000000e+00,3.280000e+01,-2.500000e+00
  104377, 0.000000e+00,3.151429e+01,-2.500000e+00
  104378, 0.000000e+00,3.022857e+01,-2.500000e+00
  104379, 0.000000e+00,2.894286e+01,-2.500000e+00
  104380, 0.000000e+00,2.765714e+01,-2.500000e+00
  104381, 0.000000e+00,2.637143e+01,-2.500000e+00
  104382, 0.000000e+00,2.508571e+01,-2.500000e+00
  104383, 1.000000e+01,4.180000e+01,-3.729050e-15
  104384, 1.000000e+01,2.508571e+01,4.723638e-16
  104385, 1.000000e+01,2.637143e+01,3.936365e-16
  104386, 1.000000e+01,2.765714e+01,3.149092e-16
  104387, 1.000000e+01,2.894286e+01,2.361819e-16
  104388, 1.000000e+01,3.022857e+01,1.574546e-16
  104389, 1.000000e+01,3.151429e+01,7.872729e-17
  104390, 1.000000e+01,3.280000e+01,-2.175410e-31
  104391, 1.000000e+01,3.408571e+01,-7.872729e-17
  104392, 1.000000e+01,3.537143e+01,-1.574546e-16
  104393, 1.000000e+01,3.665714e+01,-2.361819e-16
  104394, 1.000000e+01,3.794286e+01,-3.149092e-16
  104395, 1.000000e+01,3.922857e+01,-3.936365e-16
  104396, 1.000000e+01,4.051429e+01,-4.723638e-16
  104397, 8.000000e+00,4.180000e+01,0.000000e+00
  104398, 6.000000e+00,4.180000e+01,0.000000e+00
  104399, 4.000000e+00,4.180000e+01,0.000000e+00
  104400, 2.000000e+00,4.180000e+01,0.000000e+00
  104401, 2.000000e+00,4.051429e+01,0.000000e+00
  104402, 2.000000e+00,3.922857e+01,0.000000e+00
  104403, 2.000000e+00,3.794286e+01,0.000000e+00
  104404, 2.000000e+00,3.665714e+01,0.000000e+00
  104405, 2.000000e+00,3.537143e+01,0.000000e+00
  104406, 2.000000e+00,3.408571e+01,0.000000e+00
  104407, 2.000000e+00,3.280000e+01,0.000000e+00
  104408, 2.000000e+00,3.151429e+01,0.000000e+00
  104409, 2.000000e+00,3.022857e+01,0.000000e+00
  104410, 2.000000e+00,2.894286e+01,0.000000e+00
  104411, 2.000000e+00,2.765714e+01,0.000000e+00
  104412, 2.000000e+00,2.637143e+01,0.000000e+00
  104413, 2.000000e+00,2.508571e+01,0.000000e+00
  104414, 4.000000e+00,4.051429e+01,0.000000e+00
  104415, 4.000000e+00,3.922857e+01,0.000000e+00
  104416, 4.000000e+00,3.794286e+01,0.000000e+00
  104417, 4.000000e+00,3.665714e+01,0.000000e+00
  104418, 4.000000e+00,3.537143e+01,0.000000e+00
  104419, 4.000000e+00,3.408571e+01,0.000000e+00
  104420, 4.000000e+00,3.280000e+01,0.000000e+00
  104421, 4.000000e+00,3.151429e+01,0.000000e+00
  104422, 4.000000e+00,3.022857e+01,0.000000e+00
  104423, 4.000000e+00,2.894286e+01,0.000000e+00
  104424, 4.000000e+00,2.765714e+01,0.000000e+00
  104425, 4.000000e+00,2.637143e+01,0.000000e+00
  104426, 4.000000e+00,2.508571e+01,0.000000e+00
  104427, 6.000000e+00,4.051429e+01,0.000000e+00
  104428, 6.000000e+00,3.922857e+01,0.000000e+00
  104429, 6.000000e+00,3.794286e+01,0.000000e+00
  104430, 6.000000e+00,3.665714e+01,0.000000e+00
  104431, 6.000000e+00,3.537143e+01,0.000000e+00
  104432, 6.000000e+00,3.408571e+01,0.000000e+00
  104433, 6.000000e+00,3.280000e+01,0.000000e+00
  104434, 6.000000e+00,3.151429e+01,0.000000e+00
  104435, 6.000000e+00,3.022857e+01,0.000000e+00
  104436, 6.000000e+00,2.894286e+01,0.000000e+00
  104437, 6.000000e+00,2.765714e+01,0.000000e+00
  104438, 6.000000e+00,2.637143e+01,0.000000e+00
  104439, 6.000000e+00,2.508571e+01,0.000000e+00
  104440, 8.000000e+00,4.051429e+01,0.000000e+00
  104441, 8.000000e+00,3.922857e+01,0.000000e+00
  104442, 8.000000e+00,3.794286e+01,0.000000e+00
  104443, 8.000000e+00,3.665714e+01,0.000000e+00
  104444, 8.000000e+00,3.537143e+01,0.000000e+00
  104445, 8.000000e+00,3.408571e+01,0.000000e+00
  104446, 8.000000e+00,3.280000e+01,0.000000e+00
  104447, 8.000000e+00,3.151429e+01,0.000000e+00
  104448, 8.000000e+00,3.022857e+01,0.000000e+00
  104449, 8.000000e+00,2.894286e+01,0.000000e+00
  104450, 8.000000e+00,2.765714e+01,0.000000e+00
  104451, 8.000000e+00,2.637143e+01,0.000000e+00
  104452, 8.000000e+00,2.508571e+01,0.000000e+00
  104453, 9.749279e+00,4.180000e+01,-2.225209e+00
  104454, 9.009689e+00,4.180000e+01,-4.338837e+00
  104455, 7.818315e+00,4.180000e+01,-6.234898e+00
  104456, 6.234898e+00,4.180000e+01,-7.818315e+00
  104457, 4.338837e+00,4.180000e+01,-9.009689e+00
  104458, 2.225209e+00,4.180000e+01,-9.749279e+00
  104459, 2.225209e+00,2.508571e+01,-9.749279e+00
  104460, 2.225209e+00,2.637143e+01,-9.749279e+00
  104461, 2.225209e+00,2.765714e+01,-9.749279e+00
  104462, 2.225209e+00,2.894286e+01,-9.749279e+00
  104463, 2.225209e+00,3.022857e+01,-9.749279e+00
  104464, 2.225209e+00,3.151429e+01,-9.749279e+00
  104465, 2.225209e+00,3.280000e+01,-9.749279e+00
  104466, 2.225209e+00,3.408571e+01,-9.749279e+00
  104467, 2.225209e+00,3.537143e+01,-9.749279e+00
  104468, 2.225209e+00,3.665714e+01,-9.749279e+00
  104469, 2.225209e+00,3.794286e+01,-9.749279e+00
  104470, 2.225209e+00,3.922857e+01,-9.749279e+00
  104471, 2.225209e+00,4.051429e+01,-9.749279e+00
  104472, 4.338837e+00,2.508571e+01,-9.009689e+00
  104473, 4.338837e+00,2.637143e+01,-9.009689e+00
  104474, 4.338837e+00,2.765714e+01,-9.009689e+00
  104475, 4.338837e+00,2.894286e+01,-9.009689e+00
  104476, 4.338837e+00,3.022857e+01,-9.009689e+00
  104477, 4.338837e+00,3.151429e+01,-9.009689e+00
  104478, 4.338837e+00,3.280000e+01,-9.009689e+00
  104479, 4.338837e+00,3.408571e+01,-9.009689e+00
  104480, 4.338837e+00,3.537143e+01,-9.009689e+00
  104481, 4.338837e+00,3.665714e+01,-9.009689e+00
  104482, 4.338837e+00,3.794286e+01,-9.009689e+00
  104483, 4.338837e+00,3.922857e+01,-9.009689e+00
  104484, 4.338837e+00,4.051429e+01,-9.009689e+00
  104485, 6.234898e+00,2.508571e+01,-7.818315e+00
  104486, 6.234898e+00,2.637143e+01,-7.818315e+00
  104487, 6.234898e+00,2.765714e+01,-7.818315e+00
  104488, 6.234898e+00,2.894286e+01,-7.818315e+00
  104489, 6.234898e+00,3.022857e+01,-7.818315e+00
  104490, 6.234898e+00,3.151429e+01,-7.818315e+00
  104491, 6.234898e+00,3.280000e+01,-7.818315e+00
  104492, 6.234898e+00,3.408571e+01,-7.818315e+00
  104493, 6.234898e+00,3.537143e+01,-7.818315e+00
  104494, 6.234898e+00,3.665714e+01,-7.818315e+00
  104495, 6.234898e+00,3.794286e+01,-7.818315e+00
  104496, 6.234898e+00,3.922857e+01,-7.818315e+00
  104497, 6.234898e+00,4.051429e+01,-7.818315e+00
  104498, 7.818315e+00,2.508571e+01,-6.234898e+00
  104499, 7.818315e+00,2.637143e+01,-6.234898e+00
  104500, 7.818315e+00,2.765714e+01,-6.234898e+00
  104501, 7.818315e+00,2.894286e+01,-6.234898e+00
  104502, 7.818315e+00,3.022857e+01,-6.234898e+00
  104503, 7.818315e+00,3.151429e+01,-6.234898e+00
  104504, 7.818315e+00,3.280000e+01,-6.234898e+00
  104505, 7.818315e+00,3.408571e+01,-6.234898e+00
  104506, 7.818315e+00,3.537143e+01,-6.234898e+00
  104507, 7.818315e+00,3.665714e+01,-6.234898e+00
  104508, 7.818315e+00,3.794286e+01,-6.234898e+00
  104509, 7.818315e+00,3.922857e+01,-6.234898e+00
  104510, 7.818315e+00,4.051429e+01,-6.234898e+00
  104511, 9.009689e+00,2.508571e+01,-4.338837e+00
  104512, 9.009689e+00,2.637143e+01,-4.338837e+00
  104513, 9.009689e+00,2.765714e+01,-4.338837e+00
  104514, 9.009689e+00,2.894286e+01,-4.338837e+00
  104515, 9.009689e+00,3.022857e+01,-4.338837e+00
  104516, 9.009689e+00,3.151429e+01,-4.338837e+00
  104517, 9.009689e+00,3.280000e+01,-4.338837e+00
  104518, 9.009689e+00,3.408571e+01,-4.338837e+00
  104519, 9.009689e+00,3.537143e+01,-4.338837e+00
  104520, 9.009689e+00,3.665714e+01,-4.338837e+00
  104521, 9.009689e+00,3.794286e+01,-4.338837e+00
  104522, 9.009689e+00,3.922857e+01,-4.338837e+00
  104523, 9.009689e+00,4.051429e+01,-4.338837e+00
  104524, 9.749279e+00,2.508571e+01,-2.225209e+00
  104525, 9.749279e+00,2.637143e+01,-2.225209e+00
  104526, 9.749279e+00,2.765714e+01,-2.225209e+00
  104527, 9.749279e+00,2.894286e+01,-2.225209e+00
  104528, 9.749279e+00,3.022857e+01,-2.225209e+00
  104529, 9.749279e+00,3.151429e+01,-2.225209e+00
  104530, 9.749279e+00,3.280000e+01,-2.225209e+00
  104531, 9.749279e+00,3.408571e+01,-2.225209e+00
  104532, 9.749279e+00,3.537143e+01,-2.225209e+00
  104533, 9.749279e+00,3.665714e+01,-2.225209e+00
  104534, 9.749279e+00,3.794286e+01,-2.225209e+00
  104535, 9.749279e+00,3.922857e+01,-2.225209e+00
  104536, 9.749279e+00,4.051429e+01,-2.225209e+00
  104537, 6.840806e+00,2.508571e+01,-5.309894e+00
  104538, 5.525158e+00,2.508571e+01,-5.824169e+00
  104539, 3.866234e+00,2.508571e+01,-6.482100e+00
  104540, 1.975763e+00,2.508571e+01,-7.049762e+00
  104541, 1.903308e+00,2.508571e+01,-4.640728e+00
  104542, 1.908332e+00,2.508571e+01,-2.295249e+00
  104543, 3.753719e+00,2.508571e+01,-4.285651e+00
  104544, 3.833892e+00,2.508571e+01,-2.139020e+00
  104545, 5.509063e+00,2.508571e+01,-3.978288e+00
  104546, 5.714397e+00,2.508571e+01,-2.015197e+00
  104547, 7.178946e+00,2.508571e+01,-3.870615e+00
  104548, 7.639957e+00,2.508571e+01,-2.024445e+00
  104549, 6.840806e+00,2.637143e+01,-5.309894e+00
  104550, 5.525158e+00,2.637143e+01,-5.824169e+00
  104551, 3.866234e+00,2.637143e+01,-6.482100e+00
  104552, 1.975763e+00,2.637143e+01,-7.049762e+00
  104553, 1.903308e+00,2.637143e+01,-4.640728e+00
  104554, 1.908332e+00,2.637143e+01,-2.295249e+00
  104555, 3.753719e+00,2.637143e+01,-4.285651e+00
  104556, 3.833892e+00,2.637143e+01,-2.139020e+00
  104557, 5.509063e+00,2.637143e+01,-3.978288e+00
  104558, 5.714397e+00,2.637143e+01,-2.015197e+00
  104559, 7.178946e+00,2.637143e+01,-3.870615e+00
  104560, 7.639957e+00,2.637143e+01,-2.024445e+00
  104561, 6.840806e+00,2.765714e+01,-5.309894e+00
  104562, 5.525158e+00,2.765714e+01,-5.824169e+00
  104563, 3.866234e+00,2.765714e+01,-6.482100e+00
  104564, 1.975763e+00,2.765714e+01,-7.049762e+00
  104565, 1.903308e+00,2.765714e+01,-4.640728e+00
  104566, 1.908332e+00,2.765714e+01,-2.295249e+00
  104567, 3.753719e+00,2.765714e+01,-4.285651e+00
  104568, 3.833892e+00,2.765714e+01,-2.139020e+00
  104569, 5.509063e+00,2.765714e+01,-3.978288e+00
  104570, 5.714397e+00,2.765714e+01,-2.015197e+00
  104571, 7.178946e+00,2.765714e+01,-3.870615e+00
  104572, 7.639957e+00,2.765714e+01,-2.024445e+00
  104573, 6.840806e+00,2.894286e+01,-5.309894e+00
  104574, 5.525158e+00,2.894286e+01,-5.824169e+00
  104575, 3.866234e+00,2.894286e+01,-6.482100e+00
  104576, 1.975763e+00,2.894286e+01,-7.049762e+00
  104577, 1.903308e+00,2.894286e+01,-4.640728e+00
  104578, 1.908332e+00,2.894286e+01,-2.295249e+00
  104579, 3.753719e+00,2.894286e+01,-4.285651e+00
  104580, 3.833892e+00,2.894286e+01,-2.139020e+00
  104581, 5.509063e+00,2.894286e+01,-3.978288e+00
  104582, 5.714397e+00,2.894286e+01,-2.015197e+00
  104583, 7.178946e+00,2.894286e+01,-3.870615e+00
  104584, 7.639957e+00,2.894286e+01,-2.024445e+00
  104585, 6.840806e+00,3.022857e+01,-5.309894e+00
  104586, 5.525158e+00,3.022857e+01,-5.824169e+00
  104587, 3.866234e+00,3.022857e+01,-6.482100e+00
  104588, 1.975763e+00,3.022857e+01,-7.049762e+00
  104589, 1.903308e+00,3.022857e+01,-4.640728e+00
  104590, 1.908332e+00,3.022857e+01,-2.295249e+00
  104591, 3.753719e+00,3.022857e+01,-4.285651e+00
  104592, 3.833892e+00,3.022857e+01,-2.139020e+00
  104593, 5.509063e+00,3.022857e+01,-3.978288e+00
  104594, 5.714397e+00,3.022857e+01,-2.015197e+00
  104595, 7.178946e+00,3.022857e+01,-3.870615e+00
  104596, 7.639957e+00,3.022857e+01,-2.024445e+00
  104597, 6.840806e+00,3.151429e+01,-5.309894e+00
  104598, 5.525158e+00,3.151429e+01,-5.824169e+00
  104599, 3.866234e+00,3.151429e+01,-6.482100e+00
  104600, 1.975763e+00,3.151429e+01,-7.049762e+00
  104601, 1.903308e+00,3.151429e+01,-4.640728e+00
  104602, 1.908332e+00,3.151429e+01,-2.295249e+00
  104603, 3.753719e+00,3.151429e+01,-4.285651e+00
  104604, 3.833892e+00,3.151429e+01,-2.139020e+00
  104605, 5.509063e+00,3.151429e+01,-3.978288e+00
  104606, 5.714397e+00,3.151429e+01,-2.015197e+00
  104607, 7.178946e+00,3.151429e+01,-3.870615e+00
  104608, 7.639957e+00,3.151429e+01,-2.024445e+00
  104609, 6.840806e+00,3.280000e+01,-5.309894e+00
  104610, 5.525158e+00,3.280000e+01,-5.824169e+00
  104611, 3.866234e+00,3.280000e+01,-6.482100e+00
  104612, 1.975763e+00,3.280000e+01,-7.049762e+00
  104613, 1.903308e+00,3.280000e+01,-4.640728e+00
  104614, 1.908332e+00,3.280000e+01,-2.295249e+00
  104615, 3.753719e+00,3.280000e+01,-4.285651e+00
  104616, 3.833892e+00,3.280000e+01,-2.139020e+00
  104617, 5.509063e+00,3.280000e+01,-3.978288e+00
  104618, 5.714397e+00,3.280000e+01,-2.015197e+00
  104619, 7.178946e+00,3.280000e+01,-3.870615e+00
  104620, 7.639957e+00,3.280000e+01,-2.024445e+00
  104621, 6.840806e+00,3.408571e+01,-5.309894e+00
  104622, 5.525158e+00,3.408571e+01,-5.824169e+00
  104623, 3.866234e+00,3.408571e+01,-6.482100e+00
  104624, 1.975763e+00,3.408571e+01,-7.049762e+00
  104625, 1.903308e+00,3.408571e+01,-4.640728e+00
  104626, 1.908332e+00,3.408571e+01,-2.295249e+00
  104627, 3.753719e+00,3.408571e+01,-4.285651e+00
  104628, 3.833892e+00,3.408571e+01,-2.139020e+00
  104629, 5.509063e+00,3.408571e+01,-3.978288e+00
  104630, 5.714397e+00,3.408571e+01,-2.015197e+00
  104631, 7.178946e+00,3.408571e+01,-3.870615e+00
  104632, 7.639957e+00,3.408571e+01,-2.024445e+00
  104633, 6.840806e+00,3.537143e+01,-5.309894e+00
  104634, 5.525158e+00,3.537143e+01,-5.824169e+00
  104635, 3.866234e+00,3.537143e+01,-6.482100e+00
  104636, 1.975763e+00,3.537143e+01,-7.049762e+00
  104637, 1.903308e+00,3.537143e+01,-4.640728e+00
  104638, 1.908332e+00,3.537143e+01,-2.295249e+00
  104639, 3.753719e+00,3.537143e+01,-4.285651e+00
  104640, 3.833892e+00,3.537143e+01,-2.139020e+00
  104641, 5.509063e+00,3.537143e+01,-3.978288e+00
  104642, 5.714397e+00,3.537143e+01,-2.015197e+00
  104643, 7.178946e+00,3.537143e+01,-3.870615e+00
  104644, 7.639957e+00,3.537143e+01,-2.024445e+00
  104645, 6.840806e+00,3.665714e+01,-5.309894e+00
  104646, 5.525158e+00,3.665714e+01,-5.824169e+00
  104647, 3.866234e+00,3.665714e+01,-6.482100e+00
  104648, 1.975763e+00,3.665714e+01,-7.049762e+00
  104649, 1.903308e+00,3.665714e+01,-4.640728e+00
  104650, 1.908332e+00,3.665714e+01,-2.295249e+00
  104651, 3.753719e+00,3.665714e+01,-4.285651e+00
  104652, 3.833892e+00,3.665714e+01,-2.139020e+00
  104653, 5.509063e+00,3.665714e+01,-3.978288e+00
  104654, 5.714397e+00,3.665714e+01,-2.015197e+00
  104655, 7.178946e+00,3.665714e+01,-3.870615e+00
  104656, 7.639957e+00,3.665714e+01,-2.024445e+00
  104657, 6.840806e+00,3.794286e+01,-5.309894e+00
  104658, 5.525158e+00,3.794286e+01,-5.824169e+00
  104659, 3.866234e+00,3.794286e+01,-6.482100e+00
  104660, 1.975763e+00,3.794286e+01,-7.049762e+00
  104661, 1.903308e+00,3.794286e+01,-4.640728e+00
  104662, 1.908332e+00,3.794286e+01,-2.295249e+00
  104663, 3.753719e+00,3.794286e+01,-4.285651e+00
  104664, 3.833892e+00,3.794286e+01,-2.139020e+00
  104665, 5.509063e+00,3.794286e+01,-3.978288e+00
  104666, 5.714397e+00,3.794286e+01,-2.015197e+00
  104667, 7.178946e+00,3.794286e+01,-3.870615e+00
  104668, 7.639957e+00,3.794286e+01,-2.024445e+00
  104669, 6.840806e+00,3.922857e+01,-5.309894e+00
  104670, 5.525158e+00,3.922857e+01,-5.824169e+00
  104671, 3.866234e+00,3.922857e+01,-6.482100e+00
  104672, 1.975763e+00,3.922857e+01,-7.049762e+00
  104673, 1.903308e+00,3.922857e+01,-4.640728e+00
  104674, 1.908332e+00,3.922857e+01,-2.295249e+00
  104675, 3.753719e+00,3.922857e+01,-4.285651e+00
  104676, 3.833892e+00,3.922857e+01,-2.139020e+00
  104677, 5.509063e+00,3.922857e+01,-3.978288e+00
  104678, 5.714397e+00,3.922857e+01,-2.015197e+00
  104679, 7.178946e+00,3.922857e+01,-3.870615e+00
  104680, 7.639957e+00,3.922857e+01,-2.024445e+00
  104681, 6.840806e+00,4.051429e+01,-5.309894e+00
  104682, 5.525158e+00,4.051429e+01,-5.824169e+00
  104683, 3.866234e+00,4.051429e+01,-6.482100e+00
  104684, 1.975763e+00,4.051429e+01,-7.049762e+00
  104685, 1.903308e+00,4.051429e+01,-4.640728e+00
  104686, 1.908332e+00,4.051429e+01,-2.295249e+00
  104687, 3.753719e+00,4.051429e+01,-4.285651e+00
  104688, 3.833892e+00,4.051429e+01,-2.139020e+00
  104689, 5.509063e+00,4.051429e+01,-3.978288e+00
  104690, 5.714397e+00,4.051429e+01,-2.015197e+00
  104691, 7.178946e+00,4.051429e+01,-3.870615e+00
  104692, 7.639957e+00,4.051429e+01,-2.024445e+00
  104693, 6.840806e+00,4.180000e+01,-5.309894e+00
  104694, 5.525158e+00,4.180000e+01,-5.824169e+00
  104695, 3.866234e+00,4.180000e+01,-6.482100e+00
  104696, 1.975763e+00,4.180000e+01,-7.049762e+00
  104697, 1.903308e+00,4.180000e+01,-4.640728e+00
  104698, 1.908332e+00,4.180000e+01,-2.295249e+00
  104699, 3.753719e+00,4.180000e+01,-4.285651e+00
  104700, 3.833892e+00,4.180000e+01,-2.139020e+00
  104701, 5.509063e+00,4.180000e+01,-3.978288e+00
  104702, 5.714397e+00,4.180000e+01,-2.015197e+00
  104703, 7.178946e+00,4.180000e+01,-3.870615e+00
  104704, 7.639957e+00,4.180000e+01,-2.024445e+00
  104705, 0.000000e+00,2.000000e+01,-1.000000e+01
  104706, 0.000000e+00,2.126667e+01,-1.000000e+01
  104707, 0.000000e+00,2.253333e+01,-1.000000e+01
  104708, 0.000000e+00,2.000000e+01,0.000000e+00
  104709, 0.000000e+00,2.000000e+01,-7.500000e+00
  104710, 0.000000e+00,2.000000e+01,-5.000000e+00
  104711, 0.000000e+00,2.000000e+01,-2.500000e+00
  104712, 0.000000e+00,2.253333e+01,0.000000e+00
  104713, 0.000000e+00,2.126667e+01,0.000000e+00
  104714, 0.000000e+00,2.253333e+01,-7.500000e+00
  104715, 0.000000e+00,2.126667e+01,-7.500000e+00
  104716, 0.000000e+00,2.253333e+01,-5.000000e+00
  104717, 0.000000e+00,2.126667e+01,-5.000000e+00
  104718, 0.000000e+00,2.253333e+01,-2.500000e+00
  104719, 0.000000e+00,2.126667e+01,-2.500000e+00
  104720, 1.000000e+01,2.000000e+01,0.000000e+00
  104721, 8.000000e+00,2.000000e+01,0.000000e+00
  104722, 6.000000e+00,2.000000e+01,0.000000e+00
  104723, 4.000000e+00,2.000000e+01,0.000000e+00
  104724, 2.000000e+00,2.000000e+01,0.000000e+00
  104725, 1.000000e+01,2.126667e+01,3.878048e-17
  104726, 1.000000e+01,2.253333e+01,-3.878048e-17
  104727, 2.000000e+00,2.253333e+01,0.000000e+00
  104728, 2.000000e+00,2.126667e+01,0.000000e+00
  104729, 4.000000e+00,2.253333e+01,0.000000e+00
  104730, 4.000000e+00,2.126667e+01,0.000000e+00
  104731, 6.000000e+00,2.253333e+01,0.000000e+00
  104732, 6.000000e+00,2.126667e+01,0.000000e+00
  104733, 8.000000e+00,2.253333e+01,0.000000e+00
  104734, 8.000000e+00,2.126667e+01,0.000000e+00
  104735, 2.225209e+00,2.000000e+01,-9.749279e+00
  104736, 4.338837e+00,2.000000e+01,-9.009689e+00
  104737, 6.234898e+00,2.000000e+01,-7.818315e+00
  104738, 7.818315e+00,2.000000e+01,-6.234898e+00
  104739, 9.009689e+00,2.000000e+01,-4.338837e+00
  104740, 9.749279e+00,2.000000e+01,-2.225209e+00
  104741, 2.225209e+00,2.126667e+01,-9.749279e+00
  104742, 2.225209e+00,2.253333e+01,-9.749279e+00
  104743, 4.338837e+00,2.126667e+01,-9.009689e+00
  104744, 4.338837e+00,2.253333e+01,-9.009689e+00
  104745, 6.234898e+00,2.126667e+01,-7.818315e+00
  104746, 6.234898e+00,2.253333e+01,-7.818315e+00
  104747, 7.818315e+00,2.126667e+01,-6.234898e+00
  104748, 7.818315e+00,2.253333e+01,-6.234898e+00
  104749, 9.009689e+00,2.126667e+01,-4.338837e+00
  104750, 9.009689e+00,2.253333e+01,-4.338837e+00
  104751, 9.749279e+00,2.126667e+01,-2.225209e+00
  104752, 9.749279e+00,2.253333e+01,-2.225209e+00
  104753, 5.525158e+00,2.253333e+01,-5.824169e+00
  104754, 6.840806e+00,2.253333e+01,-5.309894e+00
  104755, 3.866234e+00,2.253333e+01,-6.482100e+00
  104756, 1.975763e+00,2.253333e+01,-7.049762e+00
  104757, 1.903308e+00,2.253333e+01,-4.640728e+00
  104758, 1.908332e+00,2.253333e+01,-2.295249e+00
  104759, 3.753719e+00,2.253333e+01,-4.285651e+00
  104760, 3.833892e+00,2.253333e+01,-2.139020e+00
  104761, 5.509063e+00,2.253333e+01,-3.978288e+00
  104762, 5.714397e+00,2.253333e+01,-2.015197e+00
  104763, 7.178946e+00,2.253333e+01,-3.870615e+00
  104764, 7.639957e+00,2.253333e+01,-2.024445e+00
  104765, 5.525158e+00,2.126667e+01,-5.824169e+00
  104766, 6.840806e+00,2.126667e+01,-5.309894e+00
  104767, 3.866234e+00,2.126667e+01,-6.482100e+00
  104768, 1.975763e+00,2.126667e+01,-7.049762e+00
  104769, 1.903308e+00,2.126667e+01,-4.640728e+00
  104770, 1.908332e+00,2.126667e+01,-2.295249e+00
  104771, 3.753719e+00,2.126667e+01,-4.285651e+00
  104772, 3.833892e+00,2.126667e+01,-2.139020e+00
  104773, 5.509063e+00,2.126667e+01,-3.978288e+00
  104774, 5.714397e+00,2.126667e+01,-2.015197e+00
  104775, 7.178946e+00,2.126667e+01,-3.870615e+00
  104776, 7.639957e+00,2.126667e+01,-2.024445e+00
  104777, 5.525158e+00,2.000000e+01,-5.824169e+00
  104778, 6.840806e+00,2.000000e+01,-5.309894e+00
  104779, 3.866234e+00,2.000000e+01,-6.482100e+00
  104780, 1.975763e+00,2.000000e+01,-7.049762e+00
  104781, 1.903308e+00,2.000000e+01,-4.640728e+00
  104782, 1.908332e+00,2.000000e+01,-2.295249e+00
  104783, 3.753719e+00,2.000000e+01,-4.285651e+00
  104784, 3.833892e+00,2.000000e+01,-2.139020e+00
  104785, 5.509063e+00,2.000000e+01,-3.978288e+00
  104786, 5.714397e+00,2.000000e+01,-2.015197e+00
  104787, 7.178946e+00,2.000000e+01,-3.870615e+00
  104788, 7.639957e+00,2.000000e+01,-2.024445e+00
  104789, 0.000000e+00,0.000000e+00,-1.000000e+01
  104790, 0.000000e+00,1.250000e+00,-1.000000e+01
  104791, 0.000000e+00,2.500000e+00,-1.000000e+01
  104792, 0.000000e+00,3.750000e+00,-1.000000e+01
  104793, 0.000000e+00,5.000000e+00,-1.000000e+01
  104794, 0.000000e+00,6.250000e+00,-1.000000e+01
  104795, 0.000000e+00,7.500000e+00,-1.000000e+01
  104796, 0.000000e+00,8.750000e+00,-1.000000e+01
  104797, 0.000000e+00,1.000000e+01,-1.000000e+01
  104798, 0.000000e+00,1.125000e+01,-1.000000e+01
  104799, 0.000000e+00,1.250000e+01,-1.000000e+01
  104800, 0.000000e+00,1.375000e+01,-1.000000e+01
  104801, 0.000000e+00,1.500000e+01,-1.000000e+01
  104802, 0.000000e+00,1.625000e+01,-1.000000e+01
  104803, 0.000000e+00,1.750000e+01,-1.000000e+01
  104804, 0.000000e+00,1.875000e+01,-1.000000e+01
  104805, 0.000000e+00,0.000000e+00,0.000000e+00
  104806, 0.000000e+00,0.000000e+00,-7.500000e+00
  104807, 0.000000e+00,0.000000e+00,-5.000000e+00
  104808, 0.000000e+00,0.000000e+00,-2.500000e+00
  104809, 0.000000e+00,1.875000e+01,0.000000e+00
  104810, 0.000000e+00,1.750000e+01,0.000000e+00
  104811, 0.000000e+00,1.625000e+01,0.000000e+00
  104812, 0.000000e+00,1.500000e+01,0.000000e+00
  104813, 0.000000e+00,1.375000e+01,0.000000e+00
  104814, 0.000000e+00,1.250000e+01,0.000000e+00
  104815, 0.000000e+00,1.125000e+01,0.000000e+00
  104816, 0.000000e+00,1.000000e+01,0.000000e+00
  104817, 0.000000e+00,8.750000e+00,0.000000e+00
  104818, 0.000000e+00,7.500000e+00,0.000000e+00
  104819, 0.000000e+00,6.250000e+00,0.000000e+00
  104820, 0.000000e+00,5.000000e+00,0.000000e+00
  104821, 0.000000e+00,3.750000e+00,0.000000e+00
  104822, 0.000000e+00,2.500000e+00,0.000000e+00
  104823, 0.000000e+00,1.250000e+00,0.000000e+00
  104824, 0.000000e+00,1.875000e+01,-7.500000e+00
  104825, 0.000000e+00,1.750000e+01,-7.500000e+00
  104826, 0.000000e+00,1.625000e+01,-7.500000e+00
  104827, 0.000000e+00,1.500000e+01,-7.500000e+00
  104828, 0.000000e+00,1.375000e+01,-7.500000e+00
  104829, 0.000000e+00,1.250000e+01,-7.500000e+00
  104830, 0.000000e+00,1.125000e+01,-7.500000e+00
  104831, 0.000000e+00,1.000000e+01,-7.500000e+00
  104832, 0.000000e+00,8.750000e+00,-7.500000e+00
  104833, 0.000000e+00,7.500000e+00,-7.500000e+00
  104834, 0.000000e+00,6.250000e+00,-7.500000e+00
  104835, 0.000000e+00,5.000000e+00,-7.500000e+00
  104836, 0.000000e+00,3.750000e+00,-7.500000e+00
  104837, 0.000000e+00,2.500000e+00,-7.500000e+00
  104838, 0.000000e+00,1.250000e+00,-7.500000e+00
  104839, 0.000000e+00,1.875000e+01,-5.000000e+00
  104840, 0.000000e+00,1.750000e+01,-5.000000e+00
  104841, 0.000000e+00,1.625000e+01,-5.000000e+00
  104842, 0.000000e+00,1.500000e+01,-5.000000e+00
  104843, 0.000000e+00,1.375000e+01,-5.000000e+00
  104844, 0.000000e+00,1.250000e+01,-5.000000e+00
  104845, 0.000000e+00,1.125000e+01,-5.000000e+00
  104846, 0.000000e+00,1.000000e+01,-5.000000e+00
  104847, 0.000000e+00,8.750000e+00,-5.000000e+00
  104848, 0.000000e+00,7.500000e+00,-5.000000e+00
  104849, 0.000000e+00,6.250000e+00,-5.000000e+00
  104850, 0.000000e+00,5.000000e+00,-5.000000e+00
  104851, 0.000000e+00,3.750000e+00,-5.000000e+00
  104852, 0.000000e+00,2.500000e+00,-5.000000e+00
  104853, 0.000000e+00,1.250000e+00,-5.000000e+00
  104854, 0.000000e+00,1.875000e+01,-2.500000e+00
  104855, 0.000000e+00,1.750000e+01,-2.500000e+00
  104856, 0.000000e+00,1.625000e+01,-2.500000e+00
  104857, 0.000000e+00,1.500000e+01,-2.500000e+00
  104858, 0.000000e+00,1.375000e+01,-2.500000e+00
  104859, 0.000000e+00,1.250000e+01,-2.500000e+00
  104860, 0.000000e+00,1.125000e+01,-2.500000e+00
  104861, 0.000000e+00,1.000000e+01,-2.500000e+00
  104862, 0.000000e+00,8.750000e+00,-2.500000e+00
  104863, 0.000000e+00,7.500000e+00,-2.500000e+00
  104864, 0.000000e+00,6.250000e+00,-2.500000e+00
  104865, 0.000000e+00,5.000000e+00,-2.500000e+00
  104866, 0.000000e+00,3.750000e+00,-2.500000e+00
  104867, 0.000000e+00,2.500000e+00,-2.500000e+00
  104868, 0.000000e+00,1.250000e+00,-2.500000e+00
  104869, 1.000000e+01,0.000000e+00,0.000000e+00
  104870, 8.000000e+00,0.000000e+00,0.000000e+00
  104871, 6.000000e+00,0.000000e+00,0.000000e+00
  104872, 4.000000e+00,0.000000e+00,0.000000e+00
  104873, 2.000000e+00,0.000000e+00,0.000000e+00
  104874, 1.000000e+01,1.250000e+00,5.357830e-16
  104875, 1.000000e+01,2.500000e+00,4.592425e-16
  104876, 1.000000e+01,3.750000e+00,3.827021e-16
  104877, 1.000000e+01,5.000000e+00,3.061617e-16
  104878, 1.000000e+01,6.250000e+00,2.296213e-16
  104879, 1.000000e+01,7.500000e+00,1.530808e-16
  104880, 1.000000e+01,8.750000e+00,7.654042e-17
  104881, 1.000000e+01,1.000000e+01,0.000000e+00
  104882, 1.000000e+01,1.125000e+01,-7.654042e-17
  104883, 1.000000e+01,1.250000e+01,-1.530808e-16
  104884, 1.000000e+01,1.375000e+01,-2.296213e-16
  104885, 1.000000e+01,1.500000e+01,-3.061617e-16
  104886, 1.000000e+01,1.625000e+01,-3.827021e-16
  104887, 1.000000e+01,1.750000e+01,-4.592425e-16
  104888, 1.000000e+01,1.875000e+01,-5.357830e-16
  104889, 2.000000e+00,1.875000e+01,0.000000e+00
  104890, 2.000000e+00,1.750000e+01,0.000000e+00
  104891, 2.000000e+00,1.625000e+01,0.000000e+00
  104892, 2.000000e+00,1.500000e+01,0.000000e+00
  104893, 2.000000e+00,1.375000e+01,0.000000e+00
  104894, 2.000000e+00,1.250000e+01,0.000000e+00
  104895, 2.000000e+00,1.125000e+01,0.000000e+00
  104896, 2.000000e+00,1.000000e+01,0.000000e+00
  104897, 2.000000e+00,8.750000e+00,0.000000e+00
  104898, 2.000000e+00,7.500000e+00,0.000000e+00
  104899, 2.000000e+00,6.250000e+00,0.000000e+00
  104900, 2.000000e+00,5.000000e+00,0.000000e+00
  104901, 2.000000e+00,3.750000e+00,0.000000e+00
  104902, 2.000000e+00,2.500000e+00,0.000000e+00
  104903, 2.000000e+00,1.250000e+00,0.000000e+00
  104904, 4.000000e+00,1.875000e+01,0.000000e+00
  104905, 4.000000e+00,1.750000e+01,0.000000e+00
  104906, 4.000000e+00,1.625000e+01,0.000000e+00
  104907, 4.000000e+00,1.500000e+01,0.000000e+00
  104908, 4.000000e+00,1.375000e+01,0.000000e+00
  104909, 4.000000e+00,1.250000e+01,0.000000e+00
  104910, 4.000000e+00,1.125000e+01,0.000000e+00
  104911, 4.000000e+00,1.000000e+01,0.000000e+00
  104912, 4.000000e+00,8.750000e+00,0.000000e+00
  104913, 4.000000e+00,7.500000e+00,0.000000e+00
  104914, 4.000000e+00,6.250000e+00,0.000000e+00
  104915, 4.000000e+00,5.000000e+00,0.000000e+00
  104916, 4.000000e+00,3.750000e+00,0.000000e+00
  104917, 4.000000e+00,2.500000e+00,0.000000e+00
  104918, 4.000000e+00,1.250000e+00,0.000000e+00
  104919, 6.000000e+00,1.875000e+01,0.000000e+00
  104920, 6.000000e+00,1.750000e+01,0.000000e+00
  104921, 6.000000e+00,1.625000e+01,0.000000e+00
  104922, 6.000000e+00,1.500000e+01,0.000000e+00
  104923, 6.000000e+00,1.375000e+01,0.000000e+00
  104924, 6.000000e+00,1.250000e+01,0.000000e+00
  104925, 6.000000e+00,1.125000e+01,0.000000e+00
  104926, 6.000000e+00,1.000000e+01,0.000000e+00
  104927, 6.000000e+00,8.750000e+00,0.000000e+00
  104928, 6.000000e+00,7.500000e+00,0.000000e+00
  104929, 6.000000e+00,6.250000e+00,0.000000e+00
  104930, 6.000000e+00,5.000000e+00,0.000000e+00
  104931, 6.000000e+00,3.750000e+00,0.000000e+00
  104932, 6.000000e+00,2.500000e+00,0.000000e+00
  104933, 6.000000e+00,1.250000e+00,0.000000e+00
  104934, 8.000000e+00,1.875000e+01,0.000000e+00
  104935, 8.000000e+00,1.750000e+01,0.000000e+00
  104936, 8.000000e+00,1.625000e+01,0.000000e+00
  104937, 8.000000e+00,1.500000e+01,0.000000e+00
  104938, 8.000000e+00,1.375000e+01,0.000000e+00
  104939, 8.000000e+00,1.250000e+01,0.000000e+00
  104940, 8.000000e+00,1.125000e+01,0.000000e+00
  104941, 8.000000e+00,1.000000e+01,0.000000e+00
  104942, 8.000000e+00,8.750000e+00,0.000000e+00
  104943, 8.000000e+00,7.500000e+00,0.000000e+00
  104944, 8.000000e+00,6.250000e+00,0.000000e+00
  104945, 8.000000e+00,5.000000e+00,0.000000e+00
  104946, 8.000000e+00,3.750000e+00,0.000000e+00
  104947, 8.000000e+00,2.500000e+00,0.000000e+00
  104948, 8.000000e+00,1.250000e+00,0.000000e+00
  104949, 2.225209e+00,0.000000e+00,-9.749279e+00
  104950, 4.338837e+00,0.000000e+00,-9.009689e+00
  104951, 6.234898e+00,0.000000e+00,-7.818315e+00
  104952, 7.818315e+00,0.000000e+00,-6.234898e+00
  104953, 9.009689e+00,0.000000e+00,-4.338837e+00
  104954, 9.749279e+00,0.000000e+00,-2.225209e+00
  104955, 2.225209e+00,1.250000e+00,-9.749279e+00
  104956, 2.225209e+00,2.500000e+00,-9.749279e+00
  104957, 2.225209e+00,3.750000e+00,-9.749279e+00
  104958, 2.225209e+00,5.000000e+00,-9.749279e+00
  104959, 2.225209e+00,6.250000e+00,-9.749279e+00
  104960, 2.225209e+00,7.500000e+00,-9.749279e+00
  104961, 2.225209e+00,8.750000e+00,-9.749279e+00
  104962, 2.225209e+00,1.000000e+01,-9.749279e+00
  104963, 2.225209e+00,1.125000e+01,-9.749279e+00
  104964, 2.225209e+00,1.250000e+01,-9.749279e+00
  104965, 2.225209e+00,1.375000e+01,-9.749279e+00
  104966, 2.225209e+00,1.500000e+01,-9.749279e+00
  104967, 2.225209e+00,1.625000e+01,-9.749279e+00
  104968, 2.225209e+00,1.750000e+01,-9.749279e+00
  104969, 2.225209e+00,1.875000e+01,-9.749279e+00
  104970, 4.338837e+00,1.250000e+00,-9.009689e+00
  104971, 4.338837e+00,2.500000e+00,-9.009689e+00
  104972, 4.338837e+00,3.750000e+00,-9.009689e+00
  104973, 4.338837e+00,5.000000e+00,-9.009689e+00
  104974, 4.338837e+00,6.250000e+00,-9.009689e+00
  104975, 4.338837e+00,7.500000e+00,-9.009689e+00
  104976, 4.338837e+00,8.750000e+00,-9.009689e+00
  104977, 4.338837e+00,1.000000e+01,-9.009689e+00
  104978, 4.338837e+00,1.125000e+01,-9.009689e+00
  104979, 4.338837e+00,1.250000e+01,-9.009689e+00
  104980, 4.338837e+00,1.375000e+01,-9.009689e+00
  104981, 4.338837e+00,1.500000e+01,-9.009689e+00
  104982, 4.338837e+00,1.625000e+01,-9.009689e+00
  104983, 4.338837e+00,1.750000e+01,-9.009689e+00
  104984, 4.338837e+00,1.875000e+01,-9.009689e+00
  104985, 6.234898e+00,1.250000e+00,-7.818315e+00
  104986, 6.234898e+00,2.500000e+00,-7.818315e+00
  104987, 6.234898e+00,3.750000e+00,-7.818315e+00
  104988, 6.234898e+00,5.000000e+00,-7.818315e+00
  104989, 6.234898e+00,6.250000e+00,-7.818315e+00
  104990, 6.234898e+00,7.500000e+00,-7.818315e+00
  104991, 6.234898e+00,8.750000e+00,-7.818315e+00
  104992, 6.234898e+00,1.000000e+01,-7.818315e+00
  104993, 6.234898e+00,1.125000e+01,-7.818315e+00
  104994, 6.234898e+00,1.250000e+01,-7.818315e+00
  104995, 6.234898e+00,1.375000e+01,-7.818315e+00
  104996, 6.234898e+00,1.500000e+01,-7.818315e+00
  104997, 6.234898e+00,1.625000e+01,-7.818315e+00
  104998, 6.234898e+00,1.750000e+01,-7.818315e+00
  104999, 6.234898e+00,1.875000e+01,-7.818315e+00
  105000, 7.818315e+00,1.250000e+00,-6.234898e+00
  105001, 7.818315e+00,2.500000e+00,-6.234898e+00
  105002, 7.818315e+00,3.750000e+00,-6.234898e+00
  105003, 7.818315e+00,5.000000e+00,-6.234898e+00
  105004, 7.818315e+00,6.250000e+00,-6.234898e+00
  105005, 7.818315e+00,7.500000e+00,-6.234898e+00
  105006, 7.818315e+00,8.750000e+00,-6.234898e+00
  105007, 7.818315e+00,1.000000e+01,-6.234898e+00
  105008, 7.818315e+00,1.125000e+01,-6.234898e+00
  105009, 7.818315e+00,1.250000e+01,-6.234898e+00
  105010, 7.818315e+00,1.375000e+01,-6.234898e+00
  105011, 7.818315e+00,1.500000e+01,-6.234898e+00
  105012, 7.818315e+00,1.625000e+01,-6.234898e+00
  105013, 7.818315e+00,1.750000e+01,-6.234898e+00
  105014, 7.818315e+00,1.875000e+01,-6.234898e+00
  105015, 9.009689e+00,1.250000e+00,-4.338837e+00
  105016, 9.009689e+00,2.500000e+00,-4.338837e+00
  105017, 9.009689e+00,3.750000e+00,-4.338837e+00
  105018, 9.009689e+00,5.000000e+00,-4.338837e+00
  105019, 9.009689e+00,6.250000e+00,-4.338837e+00
  105020, 9.009689e+00,7.500000e+00,-4.338837e+00
  105021, 9.009689e+00,8.750000e+00,-4.338837e+00
  105022, 9.009689e+00,1.000000e+01,-4.338837e+00
  105023, 9.009689e+00,1.125000e+01,-4.338837e+00
  105024, 9.009689e+00,1.250000e+01,-4.338837e+00
  105025, 9.009689e+00,1.375000e+01,-4.338837e+00
  105026, 9.009689e+00,1.500000e+01,-4.338837e+00
  105027, 9.009689e+00,1.625000e+01,-4.338837e+00
  105028, 9.009689e+00,1.750000e+01,-4.338837e+00
  105029, 9.009689e+00,1.875000e+01,-4.338837e+00
  105030, 9.749279e+00,1.250000e+00,-2.225209e+00
  105031, 9.749279e+00,2.500000e+00,-2.225209e+00
  105032, 9.749279e+00,3.750000e+00,-2.225209e+00
  105033, 9.749279e+00,5.000000e+00,-2.225209e+00
  105034, 9.749279e+00,6.250000e+00,-2.225209e+00
  105035, 9.749279e+00,7.500000e+00,-2.225209e+00
  105036, 9.749279e+00,8.750000e+00,-2.225209e+00
  105037, 9.749279e+00,1.000000e+01,-2.225209e+00
  105038, 9.749279e+00,1.125000e+01,-2.225209e+00
  105039, 9.749279e+00,1.250000e+01,-2.225209e+00
  105040, 9.749279e+00,1.375000e+01,-2.225209e+00
  105041, 9.749279e+00,1.500000e+01,-2.225209e+00
  105042, 9.749279e+00,1.625000e+01,-2.225209e+00
  105043, 9.749279e+00,1.750000e+01,-2.225209e+00
  105044, 9.749279e+00,1.875000e+01,-2.225209e+00
  105045, 7.178946e+00,1.875000e+01,-3.870615e+00
  105046, 6.840806e+00,1.875000e+01,-5.309894e+00
  105047, 7.639957e+00,1.875000e+01,-2.024445e+00
  105048, 5.714397e+00,1.875000e+01,-2.015197e+00
  105049, 5.509063e+00,1.875000e+01,-3.978288e+00
  105050, 5.525158e+00,1.875000e+01,-5.824169e+00
  105051, 3.833892e+00,1.875000e+01,-2.139020e+00
  105052, 3.753719e+00,1.875000e+01,-4.285651e+00
  105053, 3.866234e+00,1.875000e+01,-6.482100e+00
  105054, 1.908332e+00,1.875000e+01,-2.295249e+00
  105055, 1.903308e+00,1.875000e+01,-4.640728e+00
  105056, 1.975763e+00,1.875000e+01,-7.049762e+00
  105057, 7.178946e+00,1.750000e+01,-3.870615e+00
  105058, 6.840806e+00,1.750000e+01,-5.309894e+00
  105059, 7.639957e+00,1.750000e+01,-2.024445e+00
  105060, 5.714397e+00,1.750000e+01,-2.015197e+00
  105061, 5.509063e+00,1.750000e+01,-3.978288e+00
  105062, 5.525158e+00,1.750000e+01,-5.824169e+00
  105063, 3.833892e+00,1.750000e+01,-2.139020e+00
  105064, 3.753719e+00,1.750000e+01,-4.285651e+00
  105065, 3.866234e+00,1.750000e+01,-6.482100e+00
  105066, 1.908332e+00,1.750000e+01,-2.295249e+00
  105067, 1.903308e+00,1.750000e+01,-4.640728e+00
  105068, 1.975763e+00,1.750000e+01,-7.049762e+00
  105069, 7.178946e+00,1.625000e+01,-3.870615e+00
  105070, 6.840806e+00,1.625000e+01,-5.309894e+00
  105071, 7.639957e+00,1.625000e+01,-2.024445e+00
  105072, 5.714397e+00,1.625000e+01,-2.015197e+00
  105073, 5.509063e+00,1.625000e+01,-3.978288e+00
  105074, 5.525158e+00,1.625000e+01,-5.824169e+00
  105075, 3.833892e+00,1.625000e+01,-2.139020e+00
  105076, 3.753719e+00,1.625000e+01,-4.285651e+00
  105077, 3.866234e+00,1.625000e+01,-6.482100e+00
  105078, 1.908332e+00,1.625000e+01,-2.295249e+00
  105079, 1.903308e+00,1.625000e+01,-4.640728e+00
  105080, 1.975763e+00,1.625000e+01,-7.049762e+00
  105081, 7.178946e+00,1.500000e+01,-3.870615e+00
  105082, 6.840806e+00,1.500000e+01,-5.309894e+00
  105083, 7.639957e+00,1.500000e+01,-2.024445e+00
  105084, 5.714397e+00,1.500000e+01,-2.015197e+00
  105085, 5.509063e+00,1.500000e+01,-3.978288e+00
  105086, 5.525158e+00,1.500000e+01,-5.824169e+00
  105087, 3.833892e+00,1.500000e+01,-2.139020e+00
  105088, 3.753719e+00,1.500000e+01,-4.285651e+00
  105089, 3.866234e+00,1.500000e+01,-6.482100e+00
  105090, 1.908332e+00,1.500000e+01,-2.295249e+00
  105091, 1.903308e+00,1.500000e+01,-4.640728e+00
  105092, 1.975763e+00,1.500000e+01,-7.049762e+00
  105093, 7.178946e+00,1.375000e+01,-3.870615e+00
  105094, 6.840806e+00,1.375000e+01,-5.309894e+00
  105095, 7.639957e+00,1.375000e+01,-2.024445e+00
  105096, 5.714397e+00,1.375000e+01,-2.015197e+00
  105097, 5.509063e+00,1.375000e+01,-3.978288e+00
  105098, 5.525158e+00,1.375000e+01,-5.824169e+00
  105099, 3.833892e+00,1.375000e+01,-2.139020e+00
  105100, 3.753719e+00,1.375000e+01,-4.285651e+00
  105101, 3.866234e+00,1.375000e+01,-6.482100e+00
  105102, 1.908332e+00,1.375000e+01,-2.295249e+00
  105103, 1.903308e+00,1.375000e+01,-4.640728e+00
  105104, 1.975763e+00,1.375000e+01,-7.049762e+00
  105105, 7.178946e+00,1.250000e+01,-3.870615e+00
  105106, 6.840806e+00,1.250000e+01,-5.309894e+00
  105107, 7.639957e+00,1.250000e+01,-2.024445e+00
  105108, 5.714397e+00,1.250000e+01,-2.015197e+00
  105109, 5.509063e+00,1.250000e+01,-3.978288e+00
  105110, 5.525158e+00,1.250000e+01,-5.824169e+00
  105111, 3.833892e+00,1.250000e+01,-2.139020e+00
  105112, 3.753719e+00,1.250000e+01,-4.285651e+00
  105113, 3.866234e+00,1.250000e+01,-6.482100e+00
  105114, 1.908332e+00,1.250000e+01,-2.295249e+00
  105115, 1.903308e+00,1.250000e+01,-4.640728e+00
  105116, 1.975763e+00,1.250000e+01,-7.049762e+00
  105117, 7.178946e+00,1.125000e+01,-3.870615e+00
  105118, 6.840806e+00,1.125000e+01,-5.309894e+00
  105119, 7.639957e+00,1.125000e+01,-2.024445e+00
  105120, 5.714397e+00,1.125000e+01,-2.015197e+00
  105121, 5.509063e+00,1.125000e+01,-3.978288e+00
  105122, 5.525158e+00,1.125000e+01,-5.824169e+00
  105123, 3.833892e+00,1.125000e+01,-2.139020e+00
  105124, 3.753719e+00,1.125000e+01,-4.285651e+00
  105125, 3.866234e+00,1.125000e+01,-6.482100e+00
  105126, 1.908332e+00,1.125000e+01,-2.295249e+00
  105127, 1.903308e+00,1.125000e+01,-4.640728e+00
  105128, 1.975763e+00,1.125000e+01,-7.049762e+00
  105129, 7.178946e+00,1.000000e+01,-3.870615e+00
  105130, 6.840806e+00,1.000000e+01,-5.309894e+00
  105131, 7.639957e+00,1.000000e+01,-2.024445e+00
  105132, 5.714397e+00,1.000000e+01,-2.015197e+00
  105133, 5.509063e+00,1.000000e+01,-3.978288e+00
  105134, 5.525158e+00,1.000000e+01,-5.824169e+00
  105135, 3.833892e+00,1.000000e+01,-2.139020e+00
  105136, 3.753719e+00,1.000000e+01,-4.285651e+00
  105137, 3.866234e+00,1.000000e+01,-6.482100e+00
  105138, 1.908332e+00,1.000000e+01,-2.295249e+00
  105139, 1.903308e+00,1.000000e+01,-4.640728e+00
  105140, 1.975763e+00,1.000000e+01,-7.049762e+00
  105141, 7.178946e+00,8.750000e+00,-3.870615e+00
  105142, 6.840806e+00,8.750000e+00,-5.309894e+00
  105143, 7.639957e+00,8.750000e+00,-2.024445e+00
  105144, 5.714397e+00,8.750000e+00,-2.015197e+00
  105145, 5.509063e+00,8.750000e+00,-3.978288e+00
  105146, 5.525158e+00,8.750000e+00,-5.824169e+00
  105147, 3.833892e+00,8.750000e+00,-2.139020e+00
  105148, 3.753719e+00,8.750000e+00,-4.285651e+00
  105149, 3.866234e+00,8.750000e+00,-6.482100e+00
  105150, 1.908332e+00,8.750000e+00,-2.295249e+00
  105151, 1.903308e+00,8.750000e+00,-4.640728e+00
  105152, 1.975763e+00,8.750000e+00,-7.049762e+00
  105153, 7.178946e+00,7.500000e+00,-3.870615e+00
  105154, 6.840806e+00,7.500000e+00,-5.309894e+00
  105155, 7.639957e+00,7.500000e+00,-2.024445e+00
  105156, 5.714397e+00,7.500000e+00,-2.015197e+00
  105157, 5.509063e+00,7.500000e+00,-3.978288e+00
  105158, 5.525158e+00,7.500000e+00,-5.824169e+00
  105159, 3.833892e+00,7.500000e+00,-2.139020e+00
  105160, 3.753719e+00,7.500000e+00,-4.285651e+00
  105161, 3.866234e+00,7.500000e+00,-6.482100e+00
  105162, 1.908332e+00,7.500000e+00,-2.295249e+00
  105163, 1.903308e+00,7.500000e+00,-4.640728e+00
  105164, 1.975763e+00,7.500000e+00,-7.049762e+00
  105165, 7.178946e+00,6.250000e+00,-3.870615e+00
  105166, 6.840806e+00,6.250000e+00,-5.309894e+00
  105167, 7.639957e+00,6.250000e+00,-2.024445e+00
  105168, 5.714397e+00,6.250000e+00,-2.015197e+00
  105169, 5.509063e+00,6.250000e+00,-3.978288e+00
  105170, 5.525158e+00,6.250000e+00,-5.824169e+00
  105171, 3.833892e+00,6.250000e+00,-2.139020e+00
  105172, 3.753719e+00,6.250000e+00,-4.285651e+00
  105173, 3.866234e+00,6.250000e+00,-6.482100e+00
  105174, 1.908332e+00,6.250000e+00,-2.295249e+00
  105175, 1.903308e+00,6.250000e+00,-4.640728e+00
  105176, 1.975763e+00,6.250000e+00,-7.049762e+00
  105177, 7.178946e+00,5.000000e+00,-3.870615e+00
  105178, 6.840806e+00,5.000000e+00,-5.309894e+00
  105179, 7.639957e+00,5.000000e+00,-2.024445e+00
  105180, 5.714397e+00,5.000000e+00,-2.015197e+00
  105181, 5.509063e+00,5.000000e+00,-3.978288e+00
  105182, 5.525158e+00,5.000000e+00,-5.824169e+00
  105183, 3.833892e+00,5.000000e+00,-2.139020e+00
  105184, 3.753719e+00,5.000000e+00,-4.285651e+00
  105185, 3.866234e+00,5.000000e+00,-6.482100e+00
  105186, 1.908332e+00,5.000000e+00,-2.295249e+00
  105187, 1.903308e+00,5.000000e+00,-4.640728e+00
  105188, 1.975763e+00,5.000000e+00,-7.049762e+00
  105189, 7.178946e+00,3.750000e+00,-3.870615e+00
  105190, 6.840806e+00,3.750000e+00,-5.309894e+00
  105191, 7.639957e+00,3.750000e+00,-2.024445e+00
  105192, 5.714397e+00,3.750000e+00,-2.015197e+00
  105193, 5.509063e+00,3.750000e+00,-3.978288e+00
  105194, 5.525158e+00,3.750000e+00,-5.824169e+00
  105195, 3.833892e+00,3.750000e+00,-2.139020e+00
  105196, 3.753719e+00,3.750000e+00,-4.285651e+00
  105197, 3.866234e+00,3.750000e+00,-6.482100e+00
  105198, 1.908332e+00,3.750000e+00,-2.295249e+00
  105199, 1.903308e+00,3.750000e+00,-4.640728e+00
  105200, 1.975763e+00,3.750000e+00,-7.049762e+00
  105201, 7.178946e+00,2.500000e+00,-3.870615e+00
  105202, 6.840806e+00,2.500000e+00,-5.309894e+00
  105203, 7.639957e+00,2.500000e+00,-2.024445e+00
  105204, 5.714397e+00,2.500000e+00,-2.015197e+00
  105205, 5.509063e+00,2.500000e+00,-3.978288e+00
  105206, 5.525158e+00,2.500000e+00,-5.824169e+00
  105207, 3.833892e+00,2.500000e+00,-2.139020e+00
  105208, 3.753719e+00,2.500000e+00,-4.285651e+00
  105209, 3.866234e+00,2.500000e+00,-6.482100e+00
  105210, 1.908332e+00,2.500000e+00,-2.295249e+00
  105211, 1.903308e+00,2.500000e+00,-4.640728e+00
  105212, 1.975763e+00,2.500000e+00,-7.049762e+00
  105213, 7.178946e+00,1.250000e+00,-3.870615e+00
  105214, 6.840806e+00,1.250000e+00,-5.309894e+00
  105215, 7.639957e+00,1.250000e+00,-2.024445e+00
  105216, 5.714397e+00,1.250000e+00,-2.015197e+00
  105217, 5.509063e+00,1.250000e+00,-3.978288e+00
  105218, 5.525158e+00,1.250000e+00,-5.824169e+00
  105219, 3.833892e+00,1.250000e+00,-2.139020e+00
  105220, 3.753719e+00,1.250000e+00,-4.285651e+00
  105221, 3.866234e+00,1.250000e+00,-6.482100e+00
  105222, 1.908332e+00,1.250000e+00,-2.295249e+00
  105223, 1.903308e+00,1.250000e+00,-4.640728e+00
  105224, 1.975763e+00,1.250000e+00,-7.049762e+00
  105225, 7.178946e+00,0.000000e+00,-3.870615e+00
  105226, 6.840806e+00,0.000000e+00,-5.309894e+00
  105227, 7.639957e+00,0.000000e+00,-2.024445e+00
  105228, 5.714397e+00,0.000000e+00,-2.015197e+00
  105229, 5.509063e+00,0.000000e+00,-3.978288e+00
  105230, 5.525158e+00,0.000000e+00,-5.824169e+00
  105231, 3.833892e+00,0.000000e+00,-2.139020e+00
  105232, 3.753719e+00,0.000000e+00,-4.285651e+00
  105233, 3.866234e+00,0.000000e+00,-6.482100e+00
  105234, 1.908332e+00,0.000000e+00,-2.295249e+00
  105235, 1.903308e+00,0.000000e+00,-4.640728e+00
  105236, 1.975763e+00,0.000000e+00,-7.049762e+00
  105237, 0.000000e+00,-8.000000e+01,-1.000000e+01
  105238, 0.000000e+00,-7.600000e+01,-1.000000e+01
  105239, 0.000000e+00,-7.200000e+01,-1.000000e+01
  105240, 0.000000e+00,-6.800000e+01,-1.000000e+01
  105241, 0.000000e+00,-6.400000e+01,-1.000000e+01
  105242, 0.000000e+00,-6.000000e+01,-1.000000e+01
  105243, 0.000000e+00,-5.600000e+01,-1.000000e+01
  105244, 0.000000e+00,-5.200000e+01,-1.000000e+01
  105245, 0.000000e+00,-4.800000e+01,-1.000000e+01
  105246, 0.000000e+00,-4.400000e+01,-1.000000e+01
  105247, 0.000000e+00,-4.000000e+01,-1.000000e+01
  105248, 0.000000e+00,-3.600000e+01,-1.000000e+01
  105249, 0.000000e+00,-3.200000e+01,-1.000000e+01
  105250, 0.000000e+00,-2.800000e+01,-1.000000e+01
  105251, 0.000000e+00,-2.400000e+01,-1.000000e+01
  105252, 0.000000e+00,-2.000000e+01,-1.000000e+01
  105253, 0.000000e+00,-1.600000e+01,-1.000000e+01
  105254, 0.000000e+00,-1.200000e+01,-1.000000e+01
  105255, 0.000000e+00,-8.000000e+00,-1.000000e+01
  105256, 0.000000e+00,-4.000000e+00,-1.000000e+01
  105257, 0.000000e+00,-8.000000e+01,0.000000e+00
  105258, 0.000000e+00,-8.000000e+01,-2.500000e+00
  105259, 0.000000e+00,-8.000000e+01,-5.000000e+00
  105260, 0.000000e+00,-8.000000e+01,-7.500000e+00
  105261, 0.000000e+00,-4.000000e+00,0.000000e+00
  105262, 0.000000e+00,-8.000000e+00,0.000000e+00
  105263, 0.000000e+00,-1.200000e+01,0.000000e+00
  105264, 0.000000e+00,-1.600000e+01,0.000000e+00
  105265, 0.000000e+00,-2.000000e+01,0.000000e+00
  105266, 0.000000e+00,-2.400000e+01,0.000000e+00
  105267, 0.000000e+00,-2.800000e+01,0.000000e+00
  105268, 0.000000e+00,-3.200000e+01,0.000000e+00
  105269, 0.000000e+00,-3.600000e+01,0.000000e+00
  105270, 0.000000e+00,-4.000000e+01,0.000000e+00
  105271, 0.000000e+00,-4.400000e+01,0.000000e+00
  105272, 0.000000e+00,-4.800000e+01,0.000000e+00
  105273, 0.000000e+00,-5.200000e+01,0.000000e+00
  105274, 0.000000e+00,-5.600000e+01,0.000000e+00
  105275, 0.000000e+00,-6.000000e+01,0.000000e+00
  105276, 0.000000e+00,-6.400000e+01,0.000000e+00
  105277, 0.000000e+00,-6.800000e+01,0.000000e+00
  105278, 0.000000e+00,-7.200000e+01,0.000000e+00
  105279, 0.000000e+00,-7.600000e+01,0.000000e+00
  105280, 0.000000e+00,-4.000000e+00,-7.500000e+00
  105281, 0.000000e+00,-8.000000e+00,-7.500000e+00
  105282, 0.000000e+00,-1.200000e+01,-7.500000e+00
  105283, 0.000000e+00,-1.600000e+01,-7.500000e+00
  105284, 0.000000e+00,-2.000000e+01,-7.500000e+00
  105285, 0.000000e+00,-2.400000e+01,-7.500000e+00
  105286, 0.000000e+00,-2.800000e+01,-7.500000e+00
  105287, 0.000000e+00,-3.200000e+01,-7.500000e+00
  105288, 0.000000e+00,-3.600000e+01,-7.500000e+00
  105289, 0.000000e+00,-4.000000e+01,-7.500000e+00
  105290, 0.000000e+00,-4.400000e+01,-7.500000e+00
  105291, 0.000000e+00,-4.800000e+01,-7.500000e+00
  105292, 0.000000e+00,-5.200000e+01,-7.500000e+00
  105293, 0.000000e+00,-5.600000e+01,-7.500000e+00
  105294, 0.000000e+00,-6.000000e+01,-7.500000e+00
  105295, 0.000000e+00,-6.400000e+01,-7.500000e+00
  105296, 0.000000e+00,-6.800000e+01,-7.500000e+00
  105297, 0.000000e+00,-7.200000e+01,-7.500000e+00
  105298, 0.000000e+00,-7.600000e+01,-7.500000e+00
  105299, 0.000000e+00,-4.000000e+00,-5.000000e+00
  105300, 0.000000e+00,-8.000000e+00,-5.000000e+00
  105301, 0.000000e+00,-1.200000e+01,-5.000000e+00
  105302, 0.000000e+00,-1.600000e+01,-5.000000e+00
  105303, 0.000000e+00,-2.000000e+01,-5.000000e+00
  105304, 0.000000e+00,-2.400000e+01,-5.000000e+00
  105305, 0.000000e+00,-2.800000e+01,-5.000000e+00
  105306, 0.000000e+00,-3.200000e+01,-5.000000e+00
  105307, 0.000000e+00,-3.600000e+01,-5.000000e+00
  105308, 0.000000e+00,-4.000000e+01,-5.000000e+00
  105309, 0.000000e+00,-4.400000e+01,-5.000000e+00
  105310, 0.000000e+00,-4.800000e+01,-5.000000e+00
  105311, 0.000000e+00,-5.200000e+01,-5.000000e+00
  105312, 0.000000e+00,-5.600000e+01,-5.000000e+00
  105313, 0.000000e+00,-6.000000e+01,-5.000000e+00
  105314, 0.000000e+00,-6.400000e+01,-5.000000e+00
  105315, 0.000000e+00,-6.800000e+01,-5.000000e+00
  105316, 0.000000e+00,-7.200000e+01,-5.000000e+00
  105317, 0.000000e+00,-7.600000e+01,-5.000000e+00
  105318, 0.000000e+00,-4.000000e+00,-2.500000e+00
  105319, 0.000000e+00,-8.000000e+00,-2.500000e+00
  105320, 0.000000e+00,-1.200000e+01,-2.500000e+00
  105321, 0.000000e+00,-1.600000e+01,-2.500000e+00
  105322, 0.000000e+00,-2.000000e+01,-2.500000e+00
  105323, 0.000000e+00,-2.400000e+01,-2.500000e+00
  105324, 0.000000e+00,-2.800000e+01,-2.500000e+00
  105325, 0.000000e+00,-3.200000e+01,-2.500000e+00
  105326, 0.000000e+00,-3.600000e+01,-2.500000e+00
  105327, 0.000000e+00,-4.000000e+01,-2.500000e+00
  105328, 0.000000e+00,-4.400000e+01,-2.500000e+00
  105329, 0.000000e+00,-4.800000e+01,-2.500000e+00
  105330, 0.000000e+00,-5.200000e+01,-2.500000e+00
  105331, 0.000000e+00,-5.600000e+01,-2.500000e+00
  105332, 0.000000e+00,-6.000000e+01,-2.500000e+00
  105333, 0.000000e+00,-6.400000e+01,-2.500000e+00
  105334, 0.000000e+00,-6.800000e+01,-2.500000e+00
  105335, 0.000000e+00,-7.200000e+01,-2.500000e+00
  105336, 0.000000e+00,-7.600000e+01,-2.500000e+00
  105337, 1.000000e+01,-8.000000e+01,3.729050e-15
  105338, 2.000000e+00,-8.000000e+01,0.000000e+00
  105339, 4.000000e+00,-8.000000e+01,0.000000e+00
  105340, 6.000000e+00,-8.000000e+01,0.000000e+00
  105341, 8.000000e+00,-8.000000e+01,0.000000e+00
  105342, 1.000000e+01,-7.600000e+01,3.484120e-15
  105343, 1.000000e+01,-7.200000e+01,3.239191e-15
  105344, 1.000000e+01,-6.800000e+01,2.994261e-15
  105345, 1.000000e+01,-6.400000e+01,2.749332e-15
  105346, 1.000000e+01,-6.000000e+01,2.504403e-15
  105347, 1.000000e+01,-5.600000e+01,2.259473e-15
  105348, 1.000000e+01,-5.200000e+01,2.014544e-15
  105349, 1.000000e+01,-4.800000e+01,1.769615e-15
  105350, 1.000000e+01,-4.400000e+01,1.524685e-15
  105351, 1.000000e+01,-4.000000e+01,1.279756e-15
  105352, 1.000000e+01,-3.600000e+01,1.034827e-15
  105353, 1.000000e+01,-3.200000e+01,7.898972e-16
  105354, 1.000000e+01,-2.800000e+01,5.449678e-16
  105355, 1.000000e+01,-2.400000e+01,3.000385e-16
  105356, 1.000000e+01,-2.000000e+01,5.510911e-17
  105357, 1.000000e+01,-1.600000e+01,-1.898203e-16
  105358, 1.000000e+01,-1.200000e+01,-4.347496e-16
  105359, 1.000000e+01,-8.000000e+00,-6.796790e-16
  105360, 1.000000e+01,-4.000000e+00,-9.246083e-16
  105361, 2.000000e+00,-4.000000e+00,0.000000e+00
  105362, 2.000000e+00,-8.000000e+00,0.000000e+00
  105363, 2.000000e+00,-1.200000e+01,0.000000e+00
  105364, 2.000000e+00,-1.600000e+01,0.000000e+00
  105365, 2.000000e+00,-2.000000e+01,0.000000e+00
  105366, 2.000000e+00,-2.400000e+01,0.000000e+00
  105367, 2.000000e+00,-2.800000e+01,0.000000e+00
  105368, 2.000000e+00,-3.200000e+01,0.000000e+00
  105369, 2.000000e+00,-3.600000e+01,0.000000e+00
  105370, 2.000000e+00,-4.000000e+01,0.000000e+00
  105371, 2.000000e+00,-4.400000e+01,0.000000e+00
  105372, 2.000000e+00,-4.800000e+01,0.000000e+00
  105373, 2.000000e+00,-5.200000e+01,0.000000e+00
  105374, 2.000000e+00,-5.600000e+01,0.000000e+00
  105375, 2.000000e+00,-6.000000e+01,0.000000e+00
  105376, 2.000000e+00,-6.400000e+01,0.000000e+00
  105377, 2.000000e+00,-6.800000e+01,0.000000e+00
  105378, 2.000000e+00,-7.200000e+01,0.000000e+00
  105379, 2.000000e+00,-7.600000e+01,0.000000e+00
  105380, 4.000000e+00,-4.000000e+00,0.000000e+00
  105381, 4.000000e+00,-8.000000e+00,0.000000e+00
  105382, 4.000000e+00,-1.200000e+01,0.000000e+00
  105383, 4.000000e+00,-1.600000e+01,0.000000e+00
  105384, 4.000000e+00,-2.000000e+01,0.000000e+00
  105385, 4.000000e+00,-2.400000e+01,0.000000e+00
  105386, 4.000000e+00,-2.800000e+01,0.000000e+00
  105387, 4.000000e+00,-3.200000e+01,0.000000e+00
  105388, 4.000000e+00,-3.600000e+01,0.000000e+00
  105389, 4.000000e+00,-4.000000e+01,0.000000e+00
  105390, 4.000000e+00,-4.400000e+01,0.000000e+00
  105391, 4.000000e+00,-4.800000e+01,0.000000e+00
  105392, 4.000000e+00,-5.200000e+01,0.000000e+00
  105393, 4.000000e+00,-5.600000e+01,0.000000e+00
  105394, 4.000000e+00,-6.000000e+01,0.000000e+00
  105395, 4.000000e+00,-6.400000e+01,0.000000e+00
  105396, 4.000000e+00,-6.800000e+01,0.000000e+00
  105397, 4.000000e+00,-7.200000e+01,0.000000e+00
  105398, 4.000000e+00,-7.600000e+01,0.000000e+00
  105399, 6.000000e+00,-4.000000e+00,0.000000e+00
  105400, 6.000000e+00,-8.000000e+00,0.000000e+00
  105401, 6.000000e+00,-1.200000e+01,0.000000e+00
  105402, 6.000000e+00,-1.600000e+01,0.000000e+00
  105403, 6.000000e+00,-2.000000e+01,0.000000e+00
  105404, 6.000000e+00,-2.400000e+01,0.000000e+00
  105405, 6.000000e+00,-2.800000e+01,0.000000e+00
  105406, 6.000000e+00,-3.200000e+01,0.000000e+00
  105407, 6.000000e+00,-3.600000e+01,0.000000e+00
  105408, 6.000000e+00,-4.000000e+01,0.000000e+00
  105409, 6.000000e+00,-4.400000e+01,0.000000e+00
  105410, 6.000000e+00,-4.800000e+01,0.000000e+00
  105411, 6.000000e+00,-5.200000e+01,0.000000e+00
  105412, 6.000000e+00,-5.600000e+01,0.000000e+00
  105413, 6.000000e+00,-6.000000e+01,0.000000e+00
  105414, 6.000000e+00,-6.400000e+01,0.000000e+00
  105415, 6.000000e+00,-6.800000e+01,0.000000e+00
  105416, 6.000000e+00,-7.200000e+01,0.000000e+00
  105417, 6.000000e+00,-7.600000e+01,0.000000e+00
  105418, 8.000000e+00,-4.000000e+00,0.000000e+00
  105419, 8.000000e+00,-8.000000e+00,0.000000e+00
  105420, 8.000000e+00,-1.200000e+01,0.000000e+00
  105421, 8.000000e+00,-1.600000e+01,0.000000e+00
  105422, 8.000000e+00,-2.000000e+01,0.000000e+00
  105423, 8.000000e+00,-2.400000e+01,0.000000e+00
  105424, 8.000000e+00,-2.800000e+01,0.000000e+00
  105425, 8.000000e+00,-3.200000e+01,0.000000e+00
  105426, 8.000000e+00,-3.600000e+01,0.000000e+00
  105427, 8.000000e+00,-4.000000e+01,0.000000e+00
  105428, 8.000000e+00,-4.400000e+01,0.000000e+00
  105429, 8.000000e+00,-4.800000e+01,0.000000e+00
  105430, 8.000000e+00,-5.200000e+01,0.000000e+00
  105431, 8.000000e+00,-5.600000e+01,0.000000e+00
  105432, 8.000000e+00,-6.000000e+01,0.000000e+00
  105433, 8.000000e+00,-6.400000e+01,0.000000e+00
  105434, 8.000000e+00,-6.800000e+01,0.000000e+00
  105435, 8.000000e+00,-7.200000e+01,0.000000e+00
  105436, 8.000000e+00,-7.600000e+01,0.000000e+00
  105437, 2.225209e+00,-8.000000e+01,-9.749279e+00
  105438, 4.338837e+00,-8.000000e+01,-9.009689e+00
  105439, 6.234898e+00,-8.000000e+01,-7.818315e+00
  105440, 7.818315e+00,-8.000000e+01,-6.234898e+00
  105441, 9.009689e+00,-8.000000e+01,-4.338837e+00
  105442, 9.749279e+00,-8.000000e+01,-2.225209e+00
  105443, 2.225209e+00,-7.600000e+01,-9.749279e+00
  105444, 2.225209e+00,-7.200000e+01,-9.749279e+00
  105445, 2.225209e+00,-6.800000e+01,-9.749279e+00
  105446, 2.225209e+00,-6.400000e+01,-9.749279e+00
  105447, 2.225209e+00,-6.000000e+01,-9.749279e+00
  105448, 2.225209e+00,-5.600000e+01,-9.749279e+00
  105449, 2.225209e+00,-5.200000e+01,-9.749279e+00
  105450, 2.225209e+00,-4.800000e+01,-9.749279e+00
  105451, 2.225209e+00,-4.400000e+01,-9.749279e+00
  105452, 2.225209e+00,-4.000000e+01,-9.749279e+00
  105453, 2.225209e+00,-3.600000e+01,-9.749279e+00
  105454, 2.225209e+00,-3.200000e+01,-9.749279e+00
  105455, 2.225209e+00,-2.800000e+01,-9.749279e+00
  105456, 2.225209e+00,-2.400000e+01,-9.749279e+00
  105457, 2.225209e+00,-2.000000e+01,-9.749279e+00
  105458, 2.225209e+00,-1.600000e+01,-9.749279e+00
  105459, 2.225209e+00,-1.200000e+01,-9.749279e+00
  105460, 2.225209e+00,-8.000000e+00,-9.749279e+00
  105461, 2.225209e+00,-4.000000e+00,-9.749279e+00
  105462, 4.338837e+00,-7.600000e+01,-9.009689e+00
  105463, 4.338837e+00,-7.200000e+01,-9.009689e+00
  105464, 4.338837e+00,-6.800000e+01,-9.009689e+00
  105465, 4.338837e+00,-6.400000e+01,-9.009689e+00
  105466, 4.338837e+00,-6.000000e+01,-9.009689e+00
  105467, 4.338837e+00,-5.600000e+01,-9.009689e+00
  105468, 4.338837e+00,-5.200000e+01,-9.009689e+00
  105469, 4.338837e+00,-4.800000e+01,-9.009689e+00
  105470, 4.338837e+00,-4.400000e+01,-9.009689e+00
  105471, 4.338837e+00,-4.000000e+01,-9.009689e+00
  105472, 4.338837e+00,-3.600000e+01,-9.009689e+00
  105473, 4.338837e+00,-3.200000e+01,-9.009689e+00
  105474, 4.338837e+00,-2.800000e+01,-9.009689e+00
  105475, 4.338837e+00,-2.400000e+01,-9.009689e+00
  105476, 4.338837e+00,-2.000000e+01,-9.009689e+00
  105477, 4.338837e+00,-1.600000e+01,-9.009689e+00
  105478, 4.338837e+00,-1.200000e+01,-9.009689e+00
  105479, 4.338837e+00,-8.000000e+00,-9.009689e+00
  105480, 4.338837e+00,-4.000000e+00,-9.009689e+00
  105481, 6.234898e+00,-7.600000e+01,-7.818315e+00
  105482, 6.234898e+00,-7.200000e+01,-7.818315e+00
  105483, 6.234898e+00,-6.800000e+01,-7.818315e+00
  105484, 6.234898e+00,-6.400000e+01,-7.818315e+00
  105485, 6.234898e+00,-6.000000e+01,-7.818315e+00
  105486, 6.234898e+00,-5.600000e+01,-7.818315e+00
  105487, 6.234898e+00,-5.200000e+01,-7.818315e+00
  105488, 6.234898e+00,-4.800000e+01,-7.818315e+00
  105489, 6.234898e+00,-4.400000e+01,-7.818315e+00
  105490, 6.234898e+00,-4.000000e+01,-7.818315e+00
  105491, 6.234898e+00,-3.600000e+01,-7.818315e+00
  105492, 6.234898e+00,-3.200000e+01,-7.818315e+00
  105493, 6.234898e+00,-2.800000e+01,-7.818315e+00
  105494, 6.234898e+00,-2.400000e+01,-7.818315e+00
  105495, 6.234898e+00,-2.000000e+01,-7.818315e+00
  105496, 6.234898e+00,-1.600000e+01,-7.818315e+00
  105497, 6.234898e+00,-1.200000e+01,-7.818315e+00
  105498, 6.234898e+00,-8.000000e+00,-7.818315e+00
  105499, 6.234898e+00,-4.000000e+00,-7.818315e+00
  105500, 7.818315e+00,-7.600000e+01,-6.234898e+00
  105501, 7.818315e+00,-7.200000e+01,-6.234898e+00
  105502, 7.818315e+00,-6.800000e+01,-6.234898e+00
  105503, 7.818315e+00,-6.400000e+01,-6.234898e+00
  105504, 7.818315e+00,-6.000000e+01,-6.234898e+00
  105505, 7.818315e+00,-5.600000e+01,-6.234898e+00
  105506, 7.818315e+00,-5.200000e+01,-6.234898e+00
  105507, 7.818315e+00,-4.800000e+01,-6.234898e+00
  105508, 7.818315e+00,-4.400000e+01,-6.234898e+00
  105509, 7.818315e+00,-4.000000e+01,-6.234898e+00
  105510, 7.818315e+00,-3.600000e+01,-6.234898e+00
  105511, 7.818315e+00,-3.200000e+01,-6.234898e+00
  105512, 7.818315e+00,-2.800000e+01,-6.234898e+00
  105513, 7.818315e+00,-2.400000e+01,-6.234898e+00
  105514, 7.818315e+00,-2.000000e+01,-6.234898e+00
  105515, 7.818315e+00,-1.600000e+01,-6.234898e+00
  105516, 7.818315e+00,-1.200000e+01,-6.234898e+00
  105517, 7.818315e+00,-8.000000e+00,-6.234898e+00
  105518, 7.818315e+00,-4.000000e+00,-6.234898e+00
  105519, 9.009689e+00,-7.600000e+01,-4.338837e+00
  105520, 9.009689e+00,-7.200000e+01,-4.338837e+00
  105521, 9.009689e+00,-6.800000e+01,-4.338837e+00
  105522, 9.009689e+00,-6.400000e+01,-4.338837e+00
  105523, 9.009689e+00,-6.000000e+01,-4.338837e+00
  105524, 9.009689e+00,-5.600000e+01,-4.338837e+00
  105525, 9.009689e+00,-5.200000e+01,-4.338837e+00
  105526, 9.009689e+00,-4.800000e+01,-4.338837e+00
  105527, 9.009689e+00,-4.400000e+01,-4.338837e+00
  105528, 9.009689e+00,-4.000000e+01,-4.338837e+00
  105529, 9.009689e+00,-3.600000e+01,-4.338837e+00
  105530, 9.009689e+00,-3.200000e+01,-4.338837e+00
  105531, 9.009689e+00,-2.800000e+01,-4.338837e+00
  105532, 9.009689e+00,-2.400000e+01,-4.338837e+00
  105533, 9.009689e+00,-2.000000e+01,-4.338837e+00
  105534, 9.009689e+00,-1.600000e+01,-4.338837e+00
  105535, 9.009689e+00,-1.200000e+01,-4.338837e+00
  105536, 9.009689e+00,-8.000000e+00,-4.338837e+00
  105537, 9.009689e+00,-4.000000e+00,-4.338837e+00
  105538, 9.749279e+00,-7.600000e+01,-2.225209e+00
  105539, 9.749279e+00,-7.200000e+01,-2.225209e+00
  105540, 9.749279e+00,-6.800000e+01,-2.225209e+00
  105541, 9.749279e+00,-6.400000e+01,-2.225209e+00
  105542, 9.749279e+00,-6.000000e+01,-2.225209e+00
  105543, 9.749279e+00,-5.600000e+01,-2.225209e+00
  105544, 9.749279e+00,-5.200000e+01,-2.225209e+00
  105545, 9.749279e+00,-4.800000e+01,-2.225209e+00
  105546, 9.749279e+00,-4.400000e+01,-2.225209e+00
  105547, 9.749279e+00,-4.000000e+01,-2.225209e+00
  105548, 9.749279e+00,-3.600000e+01,-2.225209e+00
  105549, 9.749279e+00,-3.200000e+01,-2.225209e+00
  105550, 9.749279e+00,-2.800000e+01,-2.225209e+00
  105551, 9.749279e+00,-2.400000e+01,-2.225209e+00
  105552, 9.749279e+00,-2.000000e+01,-2.225209e+00
  105553, 9.749279e+00,-1.600000e+01,-2.225209e+00
  105554, 9.749279e+00,-1.200000e+01,-2.225209e+00
  105555, 9.749279e+00,-8.000000e+00,-2.225209e+00
  105556, 9.749279e+00,-4.000000e+00,-2.225209e+00
  105557, 5.525158e+00,-4.000000e+00,-5.824169e+00
  105558, 6.840806e+00,-4.000000e+00,-5.309894e+00
  105559, 3.866234e+00,-4.000000e+00,-6.482100e+00
  105560, 1.975763e+00,-4.000000e+00,-7.049762e+00
  105561, 1.903308e+00,-4.000000e+00,-4.640728e+00
  105562, 1.908332e+00,-4.000000e+00,-2.295249e+00
  105563, 3.753719e+00,-4.000000e+00,-4.285651e+00
  105564, 3.833892e+00,-4.000000e+00,-2.139020e+00
  105565, 5.509063e+00,-4.000000e+00,-3.978288e+00
  105566, 5.714397e+00,-4.000000e+00,-2.015197e+00
  105567, 7.178946e+00,-4.000000e+00,-3.870615e+00
  105568, 7.639957e+00,-4.000000e+00,-2.024445e+00
  105569, 5.525158e+00,-8.000000e+00,-5.824169e+00
  105570, 6.840806e+00,-8.000000e+00,-5.309894e+00
  105571, 3.866234e+00,-8.000000e+00,-6.482100e+00
  105572, 1.975763e+00,-8.000000e+00,-7.049762e+00
  105573, 1.903308e+00,-8.000000e+00,-4.640728e+00
  105574, 1.908332e+00,-8.000000e+00,-2.295249e+00
  105575, 3.753719e+00,-8.000000e+00,-4.285651e+00
  105576, 3.833892e+00,-8.000000e+00,-2.139020e+00
  105577, 5.509063e+00,-8.000000e+00,-3.978288e+00
  105578, 5.714397e+00,-8.000000e+00,-2.015197e+00
  105579, 7.178946e+00,-8.000000e+00,-3.870615e+00
  105580, 7.639957e+00,-8.000000e+00,-2.024445e+00
  105581, 5.525158e+00,-1.200000e+01,-5.824169e+00
  105582, 6.840806e+00,-1.200000e+01,-5.309894e+00
  105583, 3.866234e+00,-1.200000e+01,-6.482100e+00
  105584, 1.975763e+00,-1.200000e+01,-7.049762e+00
  105585, 1.903308e+00,-1.200000e+01,-4.640728e+00
  105586, 1.908332e+00,-1.200000e+01,-2.295249e+00
  105587, 3.753719e+00,-1.200000e+01,-4.285651e+00
  105588, 3.833892e+00,-1.200000e+01,-2.139020e+00
  105589, 5.509063e+00,-1.200000e+01,-3.978288e+00
  105590, 5.714397e+00,-1.200000e+01,-2.015197e+00
  105591, 7.178946e+00,-1.200000e+01,-3.870615e+00
  105592, 7.639957e+00,-1.200000e+01,-2.024445e+00
  105593, 5.525158e+00,-1.600000e+01,-5.824169e+00
  105594, 6.840806e+00,-1.600000e+01,-5.309894e+00
  105595, 3.866234e+00,-1.600000e+01,-6.482100e+00
  105596, 1.975763e+00,-1.600000e+01,-7.049762e+00
  105597, 1.903308e+00,-1.600000e+01,-4.640728e+00
  105598, 1.908332e+00,-1.600000e+01,-2.295249e+00
  105599, 3.753719e+00,-1.600000e+01,-4.285651e+00
  105600, 3.833892e+00,-1.600000e+01,-2.139020e+00
  105601, 5.509063e+00,-1.600000e+01,-3.978288e+00
  105602, 5.714397e+00,-1.600000e+01,-2.015197e+00
  105603, 7.178946e+00,-1.600000e+01,-3.870615e+00
  105604, 7.639957e+00,-1.600000e+01,-2.024445e+00
  105605, 5.525158e+00,-2.000000e+01,-5.824169e+00
  105606, 6.840806e+00,-2.000000e+01,-5.309894e+00
  105607, 3.866234e+00,-2.000000e+01,-6.482100e+00
  105608, 1.975763e+00,-2.000000e+01,-7.049762e+00
  105609, 1.903308e+00,-2.000000e+01,-4.640728e+00
  105610, 1.908332e+00,-2.000000e+01,-2.295249e+00
  105611, 3.753719e+00,-2.000000e+01,-4.285651e+00
  105612, 3.833892e+00,-2.000000e+01,-2.139020e+00
  105613, 5.509063e+00,-2.000000e+01,-3.978288e+00
  105614, 5.714397e+00,-2.000000e+01,-2.015197e+00
  105615, 7.178946e+00,-2.000000e+01,-3.870615e+00
  105616, 7.639957e+00,-2.000000e+01,-2.024445e+00
  105617, 5.525158e+00,-2.400000e+01,-5.824169e+00
  105618, 6.840806e+00,-2.400000e+01,-5.309894e+00
  105619, 3.866234e+00,-2.400000e+01,-6.482100e+00
  105620, 1.975763e+00,-2.400000e+01,-7.049762e+00
  105621, 1.903308e+00,-2.400000e+01,-4.640728e+00
  105622, 1.908332e+00,-2.400000e+01,-2.295249e+00
  105623, 3.753719e+00,-2.400000e+01,-4.285651e+00
  105624, 3.833892e+00,-2.400000e+01,-2.139020e+00
  105625, 5.509063e+00,-2.400000e+01,-3.978288e+00
  105626, 5.714397e+00,-2.400000e+01,-2.015197e+00
  105627, 7.178946e+00,-2.400000e+01,-3.870615e+00
  105628, 7.639957e+00,-2.400000e+01,-2.024445e+00
  105629, 5.525158e+00,-2.800000e+01,-5.824169e+00
  105630, 6.840806e+00,-2.800000e+01,-5.309894e+00
  105631, 3.866234e+00,-2.800000e+01,-6.482100e+00
  105632, 1.975763e+00,-2.800000e+01,-7.049762e+00
  105633, 1.903308e+00,-2.800000e+01,-4.640728e+00
  105634, 1.908332e+00,-2.800000e+01,-2.295249e+00
  105635, 3.753719e+00,-2.800000e+01,-4.285651e+00
  105636, 3.833892e+00,-2.800000e+01,-2.139020e+00
  105637, 5.509063e+00,-2.800000e+01,-3.978288e+00
  105638, 5.714397e+00,-2.800000e+01,-2.015197e+00
  105639, 7.178946e+00,-2.800000e+01,-3.870615e+00
  105640, 7.639957e+00,-2.800000e+01,-2.024445e+00
  105641, 5.525158e+00,-3.200000e+01,-5.824169e+00
  105642, 6.840806e+00,-3.200000e+01,-5.309894e+00
  105643, 3.866234e+00,-3.200000e+01,-6.482100e+00
  105644, 1.975763e+00,-3.200000e+01,-7.049762e+00
  105645, 1.903308e+00,-3.200000e+01,-4.640728e+00
  105646, 1.908332e+00,-3.200000e+01,-2.295249e+00
  105647, 3.753719e+00,-3.200000e+01,-4.285651e+00
  105648, 3.833892e+00,-3.200000e+01,-2.139020e+00
  105649, 5.509063e+00,-3.200000e+01,-3.978288e+00
  105650, 5.714397e+00,-3.200000e+01,-2.015197e+00
  105651, 7.178946e+00,-3.200000e+01,-3.870615e+00
  105652, 7.639957e+00,-3.200000e+01,-2.024445e+00
  105653, 5.525158e+00,-3.600000e+01,-5.824169e+00
  105654, 6.840806e+00,-3.600000e+01,-5.309894e+00
  105655, 3.866234e+00,-3.600000e+01,-6.482100e+00
  105656, 1.975763e+00,-3.600000e+01,-7.049762e+00
  105657, 1.903308e+00,-3.600000e+01,-4.640728e+00
  105658, 1.908332e+00,-3.600000e+01,-2.295249e+00
  105659, 3.753719e+00,-3.600000e+01,-4.285651e+00
  105660, 3.833892e+00,-3.600000e+01,-2.139020e+00
  105661, 5.509063e+00,-3.600000e+01,-3.978288e+00
  105662, 5.714397e+00,-3.600000e+01,-2.015197e+00
  105663, 7.178946e+00,-3.600000e+01,-3.870615e+00
  105664, 7.639957e+00,-3.600000e+01,-2.024445e+00
  105665, 5.525158e+00,-4.000000e+01,-5.824169e+00
  105666, 6.840806e+00,-4.000000e+01,-5.309894e+00
  105667, 3.866234e+00,-4.000000e+01,-6.482100e+00
  105668, 1.975763e+00,-4.000000e+01,-7.049762e+00
  105669, 1.903308e+00,-4.000000e+01,-4.640728e+00
  105670, 1.908332e+00,-4.000000e+01,-2.295249e+00
  105671, 3.753719e+00,-4.000000e+01,-4.285651e+00
  105672, 3.833892e+00,-4.000000e+01,-2.139020e+00
  105673, 5.509063e+00,-4.000000e+01,-3.978288e+00
  105674, 5.714397e+00,-4.000000e+01,-2.015197e+00
  105675, 7.178946e+00,-4.000000e+01,-3.870615e+00
  105676, 7.639957e+00,-4.000000e+01,-2.024445e+00
  105677, 5.525158e+00,-4.400000e+01,-5.824169e+00
  105678, 6.840806e+00,-4.400000e+01,-5.309894e+00
  105679, 3.866234e+00,-4.400000e+01,-6.482100e+00
  105680, 1.975763e+00,-4.400000e+01,-7.049762e+00
  105681, 1.903308e+00,-4.400000e+01,-4.640728e+00
  105682, 1.908332e+00,-4.400000e+01,-2.295249e+00
  105683, 3.753719e+00,-4.400000e+01,-4.285651e+00
  105684, 3.833892e+00,-4.400000e+01,-2.139020e+00
  105685, 5.509063e+00,-4.400000e+01,-3.978288e+00
  105686, 5.714397e+00,-4.400000e+01,-2.015197e+00
  105687, 7.178946e+00,-4.400000e+01,-3.870615e+00
  105688, 7.639957e+00,-4.400000e+01,-2.024445e+00
  105689, 5.525158e+00,-4.800000e+01,-5.824169e+00
  105690, 6.840806e+00,-4.800000e+01,-5.309894e+00
  105691, 3.866234e+00,-4.800000e+01,-6.482100e+00
  105692, 1.975763e+00,-4.800000e+01,-7.049762e+00
  105693, 1.903308e+00,-4.800000e+01,-4.640728e+00
  105694, 1.908332e+00,-4.800000e+01,-2.295249e+00
  105695, 3.753719e+00,-4.800000e+01,-4.285651e+00
  105696, 3.833892e+00,-4.800000e+01,-2.139020e+00
  105697, 5.509063e+00,-4.800000e+01,-3.978288e+00
  105698, 5.714397e+00,-4.800000e+01,-2.015197e+00
  105699, 7.178946e+00,-4.800000e+01,-3.870615e+00
  105700, 7.639957e+00,-4.800000e+01,-2.024445e+00
  105701, 5.525158e+00,-5.200000e+01,-5.824169e+00
  105702, 6.840806e+00,-5.200000e+01,-5.309894e+00
  105703, 3.866234e+00,-5.200000e+01,-6.482100e+00
  105704, 1.975763e+00,-5.200000e+01,-7.049762e+00
  105705, 1.903308e+00,-5.200000e+01,-4.640728e+00
  105706, 1.908332e+00,-5.200000e+01,-2.295249e+00
  105707, 3.753719e+00,-5.200000e+01,-4.285651e+00
  105708, 3.833892e+00,-5.200000e+01,-2.139020e+00
  105709, 5.509063e+00,-5.200000e+01,-3.978288e+00
  105710, 5.714397e+00,-5.200000e+01,-2.015197e+00
  105711, 7.178946e+00,-5.200000e+01,-3.870615e+00
  105712, 7.639957e+00,-5.200000e+01,-2.024445e+00
  105713, 5.525158e+00,-5.600000e+01,-5.824169e+00
  105714, 6.840806e+00,-5.600000e+01,-5.309894e+00
  105715, 3.866234e+00,-5.600000e+01,-6.482100e+00
  105716, 1.975763e+00,-5.600000e+01,-7.049762e+00
  105717, 1.903308e+00,-5.600000e+01,-4.640728e+00
  105718, 1.908332e+00,-5.600000e+01,-2.295249e+00
  105719, 3.753719e+00,-5.600000e+01,-4.285651e+00
  105720, 3.833892e+00,-5.600000e+01,-2.139020e+00
  105721, 5.509063e+00,-5.600000e+01,-3.978288e+00
  105722, 5.714397e+00,-5.600000e+01,-2.015197e+00
  105723, 7.178946e+00,-5.600000e+01,-3.870615e+00
  105724, 7.639957e+00,-5.600000e+01,-2.024445e+00
  105725, 5.525158e+00,-6.000000e+01,-5.824169e+00
  105726, 6.840806e+00,-6.000000e+01,-5.309894e+00
  105727, 3.866234e+00,-6.000000e+01,-6.482100e+00
  105728, 1.975763e+00,-6.000000e+01,-7.049762e+00
  105729, 1.903308e+00,-6.000000e+01,-4.640728e+00
  105730, 1.908332e+00,-6.000000e+01,-2.295249e+00
  105731, 3.753719e+00,-6.000000e+01,-4.285651e+00
  105732, 3.833892e+00,-6.000000e+01,-2.139020e+00
  105733, 5.509063e+00,-6.000000e+01,-3.978288e+00
  105734, 5.714397e+00,-6.000000e+01,-2.015197e+00
  105735, 7.178946e+00,-6.000000e+01,-3.870615e+00
  105736, 7.639957e+00,-6.000000e+01,-2.024445e+00
  105737, 5.525158e+00,-6.400000e+01,-5.824169e+00
  105738, 6.840806e+00,-6.400000e+01,-5.309894e+00
  105739, 3.866234e+00,-6.400000e+01,-6.482100e+00
  105740, 1.975763e+00,-6.400000e+01,-7.049762e+00
  105741, 1.903308e+00,-6.400000e+01,-4.640728e+00
  105742, 1.908332e+00,-6.400000e+01,-2.295249e+00
  105743, 3.753719e+00,-6.400000e+01,-4.285651e+00
  105744, 3.833892e+00,-6.400000e+01,-2.139020e+00
  105745, 5.509063e+00,-6.400000e+01,-3.978288e+00
  105746, 5.714397e+00,-6.400000e+01,-2.015197e+00
  105747, 7.178946e+00,-6.400000e+01,-3.870615e+00
  105748, 7.639957e+00,-6.400000e+01,-2.024445e+00
  105749, 5.525158e+00,-6.800000e+01,-5.824169e+00
  105750, 6.840806e+00,-6.800000e+01,-5.309894e+00
  105751, 3.866234e+00,-6.800000e+01,-6.482100e+00
  105752, 1.975763e+00,-6.800000e+01,-7.049762e+00
  105753, 1.903308e+00,-6.800000e+01,-4.640728e+00
  105754, 1.908332e+00,-6.800000e+01,-2.295249e+00
  105755, 3.753719e+00,-6.800000e+01,-4.285651e+00
  105756, 3.833892e+00,-6.800000e+01,-2.139020e+00
  105757, 5.509063e+00,-6.800000e+01,-3.978288e+00
  105758, 5.714397e+00,-6.800000e+01,-2.015197e+00
  105759, 7.178946e+00,-6.800000e+01,-3.870615e+00
  105760, 7.639957e+00,-6.800000e+01,-2.024445e+00
  105761, 5.525158e+00,-7.200000e+01,-5.824169e+00
  105762, 6.840806e+00,-7.200000e+01,-5.309894e+00
  105763, 3.866234e+00,-7.200000e+01,-6.482100e+00
  105764, 1.975763e+00,-7.200000e+01,-7.049762e+00
  105765, 1.903308e+00,-7.200000e+01,-4.640728e+00
  105766, 1.908332e+00,-7.200000e+01,-2.295249e+00
  105767, 3.753719e+00,-7.200000e+01,-4.285651e+00
  105768, 3.833892e+00,-7.200000e+01,-2.139020e+00
  105769, 5.509063e+00,-7.200000e+01,-3.978288e+00
  105770, 5.714397e+00,-7.200000e+01,-2.015197e+00
  105771, 7.178946e+00,-7.200000e+01,-3.870615e+00
  105772, 7.639957e+00,-7.200000e+01,-2.024445e+00
  105773, 5.525158e+00,-7.600000e+01,-5.824169e+00
  105774, 6.840806e+00,-7.600000e+01,-5.309894e+00
  105775, 3.866234e+00,-7.600000e+01,-6.482100e+00
  105776, 1.975763e+00,-7.600000e+01,-7.049762e+00
  105777, 1.903308e+00,-7.600000e+01,-4.640728e+00
  105778, 1.908332e+00,-7.600000e+01,-2.295249e+00
  105779, 3.753719e+00,-7.600000e+01,-4.285651e+00
  105780, 3.833892e+00,-7.600000e+01,-2.139020e+00
  105781, 5.509063e+00,-7.600000e+01,-3.978288e+00
  105782, 5.714397e+00,-7.600000e+01,-2.015197e+00
  105783, 7.178946e+00,-7.600000e+01,-3.870615e+00
  105784, 7.639957e+00,-7.600000e+01,-2.024445e+00
  105785, 5.525158e+00,-8.000000e+01,-5.824169e+00
  105786, 6.840806e+00,-8.000000e+01,-5.309894e+00
  105787, 3.866234e+00,-8.000000e+01,-6.482100e+00
  105788, 1.975763e+00,-8.000000e+01,-7.049762e+00
  105789, 1.903308e+00,-8.000000e+01,-4.640728e+00
  105790, 1.908332e+00,-8.000000e+01,-2.295249e+00
  105791, 3.753719e+00,-8.000000e+01,-4.285651e+00
  105792, 3.833892e+00,-8.000000e+01,-2.139020e+00
  105793, 5.509063e+00,-8.000000e+01,-3.978288e+00
  105794, 5.714397e+00,-8.000000e+01,-2.015197e+00
  105795, 7.178946e+00,-8.000000e+01,-3.870615e+00
  105796, 7.639957e+00,-8.000000e+01,-2.024445e+00
  105797, 0.000000e+00,6.666670e+00,-4.000000e+01
  105798, 0.000000e+00,6.666670e+00,-1.900000e+01
  105799, 0.000000e+00,6.666670e+00,-3.580000e+01
  105800, 0.000000e+00,6.666670e+00,-3.160000e+01
  105801, 0.000000e+00,6.666670e+00,-2.740000e+01
  105802, 0.000000e+00,6.666670e+00,-2.320000e+01
  105803, 1.900000e+01,6.666670e+00,0.000000e+00
  105804, 3.706716e+00,6.666670e+00,-1.863492e+01
  105805, 7.270985e+00,6.666670e+00,-1.755371e+01
  105806, 1.055583e+01,6.666670e+00,-1.579792e+01
  105807, 1.343503e+01,6.666670e+00,-1.343503e+01
  105808, 1.579792e+01,6.666670e+00,-1.055583e+01
  105809, 1.755371e+01,6.666670e+00,-7.270985e+00
  105810, 1.863492e+01,6.666670e+00,-3.706716e+00
  105811, 4.000000e+01,6.666670e+00,0.000000e+00
  105812, 3.580000e+01,6.666670e+00,0.000000e+00
  105813, 3.160000e+01,6.666670e+00,0.000000e+00
  105814, 2.740000e+01,6.666670e+00,0.000000e+00
  105815, 2.320000e+01,6.666670e+00,0.000000e+00
  105816, 4.000000e+01,6.666670e+00,-4.000000e+01
  105817, 4.000000e+01,6.666670e+00,-3.600000e+01
  105818, 4.000000e+01,6.666670e+00,-3.200000e+01
  105819, 4.000000e+01,6.666670e+00,-2.800000e+01
  105820, 4.000000e+01,6.666670e+00,-2.400000e+01
  105821, 4.000000e+01,6.666670e+00,-2.000000e+01
  105822, 4.000000e+01,6.666670e+00,-1.600000e+01
  105823, 4.000000e+01,6.666670e+00,-1.200000e+01
  105824, 4.000000e+01,6.666670e+00,-8.000000e+00
  105825, 4.000000e+01,6.666670e+00,-4.000000e+00
  105826, 4.000000e+00,6.666670e+00,-4.000000e+01
  105827, 8.000000e+00,6.666670e+00,-4.000000e+01
  105828, 1.200000e+01,6.666670e+00,-4.000000e+01
  105829, 1.600000e+01,6.666670e+00,-4.000000e+01
  105830, 2.000000e+01,6.666670e+00,-4.000000e+01
  105831, 2.400000e+01,6.666670e+00,-4.000000e+01
  105832, 2.800000e+01,6.666670e+00,-4.000000e+01
  105833, 3.200000e+01,6.666670e+00,-4.000000e+01
  105834, 3.600000e+01,6.666670e+00,-4.000000e+01
  105835, 4.211469e+00,6.666670e+00,-2.257555e+01
  105836, 8.429694e+00,6.666670e+00,-2.150619e+01
  105837, 1.250808e+01,6.666670e+00,-1.966699e+01
  105838, 1.735013e+01,6.666670e+00,-1.736769e+01
  105839, 1.967765e+01,6.666670e+00,-1.253648e+01
  105840, 2.152421e+01,6.666670e+00,-8.400432e+00
  105841, 2.257454e+01,6.666670e+00,-4.192631e+00
  105842, 3.571287e+01,6.666670e+00,-4.089336e+00
  105843, 3.576349e+01,6.666670e+00,-8.121959e+00
  105844, 3.591118e+01,6.666670e+00,-1.202316e+01
  105845, 3.587190e+01,6.666670e+00,-1.590341e+01
  105846, 3.578244e+01,6.666670e+00,-1.983594e+01
  105847, 3.576572e+01,6.666670e+00,-2.382022e+01
  105848, 3.581234e+01,6.666670e+00,-2.784548e+01
  105849, 3.587650e+01,6.666670e+00,-3.188812e+01
  105850, 3.594045e+01,6.666670e+00,-3.594229e+01
  105851, 3.188480e+01,6.666670e+00,-3.587954e+01
  105852, 2.784079e+01,6.666670e+00,-3.581278e+01
  105853, 2.381703e+01,6.666670e+00,-3.576565e+01
  105854, 1.983483e+01,6.666670e+00,-3.578864e+01
  105855, 1.590930e+01,6.666670e+00,-3.588604e+01
  105856, 1.203258e+01,6.666670e+00,-3.589785e+01
  105857, 8.138059e+00,6.666670e+00,-3.570817e+01
  105858, 4.095931e+00,6.666670e+00,-3.571314e+01
  105859, 2.693883e+01,6.666670e+00,-4.453922e+00
  105860, 3.142926e+01,6.666670e+00,-4.223663e+00
  105861, 4.258768e+00,6.666670e+00,-3.135524e+01
  105862, 4.455829e+00,6.666670e+00,-2.692851e+01
  105863, 3.175641e+01,6.666670e+00,-3.176139e+01
  105864, 2.764626e+01,6.666670e+00,-3.161538e+01
  105865, 2.357209e+01,6.666670e+00,-3.150366e+01
  105866, 1.957076e+01,6.666670e+00,-3.163597e+01
  105867, 1.571482e+01,6.666670e+00,-3.185860e+01
  105868, 1.208487e+01,6.666670e+00,-3.190901e+01
  105869, 8.420905e+00,6.666670e+00,-3.136378e+01
  105870, 3.142007e+01,6.666670e+00,-8.396216e+00
  105871, 3.197541e+01,6.666670e+00,-1.209588e+01
  105872, 3.178161e+01,6.666670e+00,-1.573256e+01
  105873, 3.162741e+01,6.666670e+00,-1.957359e+01
  105874, 3.151052e+01,6.666670e+00,-2.357239e+01
  105875, 3.162314e+01,6.666670e+00,-2.764917e+01
  105876, 9.348057e+00,6.666670e+00,-2.642356e+01
  105877, 2.648574e+01,6.666670e+00,-9.363967e+00
  105878, 1.384733e+01,6.666670e+00,-2.423376e+01
  105879, 1.828765e+01,6.666670e+00,-2.297098e+01
  105880, 2.424102e+01,6.666670e+00,-1.386728e+01
  105881, 2.299211e+01,6.666670e+00,-1.832920e+01
  105882, 2.293528e+01,6.666670e+00,-2.293701e+01
  105883, 2.740135e+01,6.666670e+00,-2.740284e+01
  105884, 2.326549e+01,6.666670e+00,-2.732621e+01
  105885, 1.912003e+01,6.666670e+00,-2.743888e+01
  105886, 1.529172e+01,6.666670e+00,-2.804786e+01
  105887, 1.224155e+01,6.666670e+00,-2.879348e+01
  105888, 2.874177e+01,6.666670e+00,-1.224509e+01
  105889, 2.803412e+01,6.666670e+00,-1.529967e+01
  105890, 2.744304e+01,6.666670e+00,-1.912973e+01
  105891, 2.732803e+01,6.666670e+00,-2.326865e+01
  105892, 0.000000e+00,2.000000e+01,-1.900000e+01
  105893, 0.000000e+00,1.666667e+01,-1.900000e+01
  105894, 0.000000e+00,1.333333e+01,-1.900000e+01
  105895, 0.000000e+00,1.000000e+01,-1.900000e+01
  105896, 0.000000e+00,2.000000e+01,-4.000000e+01
  105897, 0.000000e+00,2.000000e+01,-3.580000e+01
  105898, 0.000000e+00,2.000000e+01,-3.160000e+01
  105899, 0.000000e+00,2.000000e+01,-2.740000e+01
  105900, 0.000000e+00,2.000000e+01,-2.320000e+01
  105901, 0.000000e+00,1.000000e+01,-4.000000e+01
  105902, 0.000000e+00,1.333333e+01,-4.000000e+01
  105903, 0.000000e+00,1.666667e+01,-4.000000e+01
  105904, 0.000000e+00,1.000000e+01,-3.580000e+01
  105905, 0.000000e+00,1.000000e+01,-3.160000e+01
  105906, 0.000000e+00,1.000000e+01,-2.740000e+01
  105907, 0.000000e+00,1.000000e+01,-2.320000e+01
  105908, 0.000000e+00,1.333333e+01,-3.580000e+01
  105909, 0.000000e+00,1.333333e+01,-3.160000e+01
  105910, 0.000000e+00,1.333333e+01,-2.740000e+01
  105911, 0.000000e+00,1.333333e+01,-2.320000e+01
  105912, 0.000000e+00,1.666667e+01,-3.580000e+01
  105913, 0.000000e+00,1.666667e+01,-3.160000e+01
  105914, 0.000000e+00,1.666667e+01,-2.740000e+01
  105915, 0.000000e+00,1.666667e+01,-2.320000e+01
  105916, 1.900000e+01,2.000000e+01,0.000000e+00
  105917, 1.900000e+01,1.666667e+01,2.041077e-16
  105918, 1.900000e+01,1.333333e+01,0.000000e+00
  105919, 1.900000e+01,1.000000e+01,-2.041077e-16
  105920, 3.706716e+00,2.000000e+01,-1.863492e+01
  105921, 7.270985e+00,2.000000e+01,-1.755371e+01
  105922, 1.055583e+01,2.000000e+01,-1.579792e+01
  105923, 1.343503e+01,2.000000e+01,-1.343503e+01
  105924, 1.579792e+01,2.000000e+01,-1.055583e+01
  105925, 1.755371e+01,2.000000e+01,-7.270985e+00
  105926, 1.863492e+01,2.000000e+01,-3.706716e+00
  105927, 3.706716e+00,1.666667e+01,-1.863492e+01
  105928, 3.706716e+00,1.333333e+01,-1.863492e+01
  105929, 3.706716e+00,1.000000e+01,-1.863492e+01
  105930, 7.270985e+00,1.666667e+01,-1.755371e+01
  105931, 7.270985e+00,1.333334e+01,-1.755371e+01
  105932, 7.270985e+00,1.000000e+01,-1.755371e+01
  105933, 1.055583e+01,1.666667e+01,-1.579792e+01
  105934, 1.055583e+01,1.333334e+01,-1.579792e+01
  105935, 1.055583e+01,1.000000e+01,-1.579792e+01
  105936, 1.343503e+01,1.666667e+01,-1.343503e+01
  105937, 1.343503e+01,1.333334e+01,-1.343503e+01
  105938, 1.343503e+01,1.000000e+01,-1.343503e+01
  105939, 1.579792e+01,1.666667e+01,-1.055583e+01
  105940, 1.579792e+01,1.333333e+01,-1.055583e+01
  105941, 1.579792e+01,1.000000e+01,-1.055583e+01
  105942, 1.755371e+01,1.666667e+01,-7.270985e+00
  105943, 1.755371e+01,1.333333e+01,-7.270985e+00
  105944, 1.755371e+01,1.000000e+01,-7.270985e+00
  105945, 1.863492e+01,1.666667e+01,-3.706716e+00
  105946, 1.863492e+01,1.333333e+01,-3.706716e+00
  105947, 1.863492e+01,1.000000e+01,-3.706716e+00
  105948, 4.000000e+01,2.000000e+01,0.000000e+00
  105949, 4.000000e+01,1.000000e+01,0.000000e+00
  105950, 4.000000e+01,1.333333e+01,0.000000e+00
  105951, 4.000000e+01,1.666667e+01,0.000000e+00
  105952, 3.580000e+01,2.000000e+01,0.000000e+00
  105953, 3.160000e+01,2.000000e+01,0.000000e+00
  105954, 2.740000e+01,2.000000e+01,0.000000e+00
  105955, 2.320000e+01,2.000000e+01,0.000000e+00
  105956, 2.320000e+01,1.666667e+01,0.000000e+00
  105957, 2.320000e+01,1.333334e+01,0.000000e+00
  105958, 2.320000e+01,1.000000e+01,0.000000e+00
  105959, 2.740000e+01,1.666667e+01,0.000000e+00
  105960, 2.740000e+01,1.333333e+01,0.000000e+00
  105961, 2.740000e+01,1.000000e+01,0.000000e+00
  105962, 3.160000e+01,1.666667e+01,0.000000e+00
  105963, 3.160000e+01,1.333333e+01,0.000000e+00
  105964, 3.160000e+01,1.000000e+01,0.000000e+00
  105965, 3.580000e+01,1.666667e+01,0.000000e+00
  105966, 3.580000e+01,1.333333e+01,0.000000e+00
  105967, 3.580000e+01,1.000000e+01,0.000000e+00
  105968, 4.000000e+01,2.000000e+01,-4.000000e+01
  105969, 4.000000e+01,1.666667e+01,-4.000000e+01
  105970, 4.000000e+01,1.333333e+01,-4.000000e+01
  105971, 4.000000e+01,1.000000e+01,-4.000000e+01
  105972, 4.000000e+01,2.000000e+01,-4.000000e+00
  105973, 4.000000e+01,2.000000e+01,-8.000000e+00
  105974, 4.000000e+01,2.000000e+01,-1.200000e+01
  105975, 4.000000e+01,2.000000e+01,-1.600000e+01
  105976, 4.000000e+01,2.000000e+01,-2.000000e+01
  105977, 4.000000e+01,2.000000e+01,-2.400000e+01
  105978, 4.000000e+01,2.000000e+01,-2.800000e+01
  105979, 4.000000e+01,2.000000e+01,-3.200000e+01
  105980, 4.000000e+01,2.000000e+01,-3.600000e+01
  105981, 4.000000e+01,1.666667e+01,-4.000000e+00
  105982, 4.000000e+01,1.333333e+01,-4.000000e+00
  105983, 4.000000e+01,1.000000e+01,-4.000000e+00
  105984, 4.000000e+01,1.666667e+01,-8.000000e+00
  105985, 4.000000e+01,1.333333e+01,-8.000000e+00
  105986, 4.000000e+01,1.000000e+01,-8.000000e+00
  105987, 4.000000e+01,1.666667e+01,-1.200000e+01
  105988, 4.000000e+01,1.333333e+01,-1.200000e+01
  105989, 4.000000e+01,1.000000e+01,-1.200000e+01
  105990, 4.000000e+01,1.666667e+01,-1.600000e+01
  105991, 4.000000e+01,1.333333e+01,-1.600000e+01
  105992, 4.000000e+01,1.000000e+01,-1.600000e+01
  105993, 4.000000e+01,1.666667e+01,-2.000000e+01
  105994, 4.000000e+01,1.333333e+01,-2.000000e+01
  105995, 4.000000e+01,1.000000e+01,-2.000000e+01
  105996, 4.000000e+01,1.666667e+01,-2.400000e+01
  105997, 4.000000e+01,1.333333e+01,-2.400000e+01
  105998, 4.000000e+01,1.000000e+01,-2.400000e+01
  105999, 4.000000e+01,1.666667e+01,-2.800000e+01
  106000, 4.000000e+01,1.333333e+01,-2.800000e+01
  106001, 4.000000e+01,1.000000e+01,-2.800000e+01
  106002, 4.000000e+01,1.666667e+01,-3.200000e+01
  106003, 4.000000e+01,1.333333e+01,-3.200000e+01
  106004, 4.000000e+01,1.000000e+01,-3.200000e+01
  106005, 4.000000e+01,1.666667e+01,-3.600000e+01
  106006, 4.000000e+01,1.333333e+01,-3.600000e+01
  106007, 4.000000e+01,1.000000e+01,-3.600000e+01
  106008, 4.000000e+00,2.000000e+01,-4.000000e+01
  106009, 8.000000e+00,2.000000e+01,-4.000000e+01
  106010, 1.200000e+01,2.000000e+01,-4.000000e+01
  106011, 1.600000e+01,2.000000e+01,-4.000000e+01
  106012, 2.000000e+01,2.000000e+01,-4.000000e+01
  106013, 2.400000e+01,2.000000e+01,-4.000000e+01
  106014, 2.800000e+01,2.000000e+01,-4.000000e+01
  106015, 3.200000e+01,2.000000e+01,-4.000000e+01
  106016, 3.600000e+01,2.000000e+01,-4.000000e+01
  106017, 4.000000e+00,1.000000e+01,-4.000000e+01
  106018, 4.000000e+00,1.333333e+01,-4.000000e+01
  106019, 4.000000e+00,1.666667e+01,-4.000000e+01
  106020, 8.000000e+00,1.000000e+01,-4.000000e+01
  106021, 8.000000e+00,1.333333e+01,-4.000000e+01
  106022, 8.000000e+00,1.666667e+01,-4.000000e+01
  106023, 1.200000e+01,1.000000e+01,-4.000000e+01
  106024, 1.200000e+01,1.333333e+01,-4.000000e+01
  106025, 1.200000e+01,1.666667e+01,-4.000000e+01
  106026, 1.600000e+01,1.000000e+01,-4.000000e+01
  106027, 1.600000e+01,1.333333e+01,-4.000000e+01
  106028, 1.600000e+01,1.666667e+01,-4.000000e+01
  106029, 2.000000e+01,1.000000e+01,-4.000000e+01
  106030, 2.000000e+01,1.333333e+01,-4.000000e+01
  106031, 2.000000e+01,1.666667e+01,-4.000000e+01
  106032, 2.400000e+01,1.000000e+01,-4.000000e+01
  106033, 2.400000e+01,1.333333e+01,-4.000000e+01
  106034, 2.400000e+01,1.666667e+01,-4.000000e+01
  106035, 2.800000e+01,1.000000e+01,-4.000000e+01
  106036, 2.800000e+01,1.333333e+01,-4.000000e+01
  106037, 2.800000e+01,1.666667e+01,-4.000000e+01
  106038, 3.200000e+01,1.000000e+01,-4.000000e+01
  106039, 3.200000e+01,1.333333e+01,-4.000000e+01
  106040, 3.200000e+01,1.666667e+01,-4.000000e+01
  106041, 3.600000e+01,1.000000e+01,-4.000000e+01
  106042, 3.600000e+01,1.333333e+01,-4.000000e+01
  106043, 3.600000e+01,1.666667e+01,-4.000000e+01
  106044, 4.211469e+00,1.000000e+01,-2.257555e+01
  106045, 8.429694e+00,1.000000e+01,-2.150619e+01
  106046, 1.250808e+01,1.000000e+01,-1.966699e+01
  106047, 1.735013e+01,1.000000e+01,-1.736769e+01
  106048, 1.967765e+01,1.000000e+01,-1.253648e+01
  106049, 2.152421e+01,1.000000e+01,-8.400432e+00
  106050, 2.257454e+01,1.000000e+01,-4.192631e+00
  106051, 3.571287e+01,1.000000e+01,-4.089336e+00
  106052, 3.576349e+01,1.000000e+01,-8.121959e+00
  106053, 3.591118e+01,1.000000e+01,-1.202316e+01
  106054, 3.587190e+01,1.000000e+01,-1.590341e+01
  106055, 3.578244e+01,1.000000e+01,-1.983594e+01
  106056, 3.576572e+01,1.000000e+01,-2.382022e+01
  106057, 3.581234e+01,1.000000e+01,-2.784548e+01
  106058, 3.587650e+01,1.000000e+01,-3.188812e+01
  106059, 3.594045e+01,1.000000e+01,-3.594229e+01
  106060, 3.188480e+01,1.000000e+01,-3.587954e+01
  106061, 2.784079e+01,1.000000e+01,-3.581278e+01
  106062, 2.381703e+01,1.000000e+01,-3.576565e+01
  106063, 1.983483e+01,1.000000e+01,-3.578864e+01
  106064, 1.590930e+01,1.000000e+01,-3.588604e+01
  106065, 1.203258e+01,1.000000e+01,-3.589785e+01
  106066, 8.138059e+00,1.000000e+01,-3.570817e+01
  106067, 4.095931e+00,1.000000e+01,-3.571314e+01
  106068, 2.693883e+01,1.000000e+01,-4.453922e+00
  106069, 3.142926e+01,1.000000e+01,-4.223663e+00
  106070, 4.258768e+00,1.000000e+01,-3.135524e+01
  106071, 4.455829e+00,1.000000e+01,-2.692851e+01
  106072, 3.175641e+01,1.000000e+01,-3.176139e+01
  106073, 2.764626e+01,1.000000e+01,-3.161538e+01
  106074, 2.357209e+01,1.000000e+01,-3.150366e+01
  106075, 1.957076e+01,1.000000e+01,-3.163597e+01
  106076, 1.571482e+01,1.000000e+01,-3.185860e+01
  106077, 1.208487e+01,1.000000e+01,-3.190901e+01
  106078, 8.420905e+00,1.000000e+01,-3.136378e+01
  106079, 3.142007e+01,1.000000e+01,-8.396216e+00
  106080, 3.197541e+01,1.000000e+01,-1.209588e+01
  106081, 3.178161e+01,1.000000e+01,-1.573256e+01
  106082, 3.162741e+01,1.000000e+01,-1.957359e+01
  106083, 3.151052e+01,1.000000e+01,-2.357239e+01
  106084, 3.162314e+01,1.000000e+01,-2.764917e+01
  106085, 9.348057e+00,1.000000e+01,-2.642356e+01
  106086, 2.648574e+01,1.000000e+01,-9.363967e+00
  106087, 1.384733e+01,1.000000e+01,-2.423376e+01
  106088, 1.828765e+01,1.000000e+01,-2.297098e+01
  106089, 2.424102e+01,1.000000e+01,-1.386728e+01
  106090, 2.299211e+01,1.000000e+01,-1.832920e+01
  106091, 2.293528e+01,1.000000e+01,-2.293701e+01
  106092, 2.740135e+01,1.000000e+01,-2.740284e+01
  106093, 2.326549e+01,1.000000e+01,-2.732621e+01
  106094, 1.912003e+01,1.000000e+01,-2.743888e+01
  106095, 1.529172e+01,1.000000e+01,-2.804786e+01
  106096, 1.224155e+01,1.000000e+01,-2.879348e+01
  106097, 2.874177e+01,1.000000e+01,-1.224509e+01
  106098, 2.803412e+01,1.000000e+01,-1.529967e+01
  106099, 2.744304e+01,1.000000e+01,-1.912973e+01
  106100, 2.732803e+01,1.000000e+01,-2.326865e+01
  106101, 4.211469e+00,1.333333e+01,-2.257555e+01
  106102, 8.429694e+00,1.333333e+01,-2.150619e+01
  106103, 1.250808e+01,1.333333e+01,-1.966699e+01
  106104, 1.735013e+01,1.333333e+01,-1.736769e+01
  106105, 1.967765e+01,1.333333e+01,-1.253648e+01
  106106, 2.152421e+01,1.333333e+01,-8.400432e+00
  106107, 2.257454e+01,1.333333e+01,-4.192631e+00
  106108, 3.571287e+01,1.333333e+01,-4.089336e+00
  106109, 3.576349e+01,1.333333e+01,-8.121959e+00
  106110, 3.591118e+01,1.333333e+01,-1.202316e+01
  106111, 3.587190e+01,1.333333e+01,-1.590341e+01
  106112, 3.578244e+01,1.333333e+01,-1.983594e+01
  106113, 3.576572e+01,1.333333e+01,-2.382022e+01
  106114, 3.581234e+01,1.333333e+01,-2.784548e+01
  106115, 3.587650e+01,1.333333e+01,-3.188812e+01
  106116, 3.594045e+01,1.333333e+01,-3.594229e+01
  106117, 3.188480e+01,1.333333e+01,-3.587954e+01
  106118, 2.784079e+01,1.333333e+01,-3.581278e+01
  106119, 2.381703e+01,1.333333e+01,-3.576565e+01
  106120, 1.983483e+01,1.333333e+01,-3.578864e+01
  106121, 1.590930e+01,1.333333e+01,-3.588604e+01
  106122, 1.203258e+01,1.333333e+01,-3.589785e+01
  106123, 8.138059e+00,1.333333e+01,-3.570817e+01
  106124, 4.095931e+00,1.333333e+01,-3.571314e+01
  106125, 2.693883e+01,1.333333e+01,-4.453922e+00
  106126, 3.142926e+01,1.333333e+01,-4.223663e+00
  106127, 4.258768e+00,1.333333e+01,-3.135524e+01
  106128, 4.455829e+00,1.333333e+01,-2.692851e+01
  106129, 3.175641e+01,1.333333e+01,-3.176139e+01
  106130, 2.764626e+01,1.333333e+01,-3.161538e+01
  106131, 2.357209e+01,1.333333e+01,-3.150366e+01
  106132, 1.957076e+01,1.333333e+01,-3.163597e+01
  106133, 1.571482e+01,1.333333e+01,-3.185860e+01
  106134, 1.208487e+01,1.333333e+01,-3.190901e+01
  106135, 8.420905e+00,1.333333e+01,-3.136378e+01
  106136, 3.142007e+01,1.333333e+01,-8.396216e+00
  106137, 3.197541e+01,1.333333e+01,-1.209588e+01
  106138, 3.178161e+01,1.333333e+01,-1.573256e+01
  106139, 3.162741e+01,1.333333e+01,-1.957359e+01
  106140, 3.151052e+01,1.333333e+01,-2.357239e+01
  106141, 3.162314e+01,1.333333e+01,-2.764917e+01
  106142, 9.348057e+00,1.333333e+01,-2.642356e+01
  106143, 2.648574e+01,1.333333e+01,-9.363967e+00
  106144, 1.384733e+01,1.333333e+01,-2.423376e+01
  106145, 1.828765e+01,1.333333e+01,-2.297098e+01
  106146, 2.424102e+01,1.333333e+01,-1.386728e+01
  106147, 2.299211e+01,1.333333e+01,-1.832920e+01
  106148, 2.293528e+01,1.333333e+01,-2.293701e+01
  106149, 2.740135e+01,1.333333e+01,-2.740284e+01
  106150, 2.326549e+01,1.333333e+01,-2.732621e+01
  106151, 1.912003e+01,1.333333e+01,-2.743888e+01
  106152, 1.529172e+01,1.333333e+01,-2.804786e+01
  106153, 1.224155e+01,1.333333e+01,-2.879348e+01
  106154, 2.874177e+01,1.333333e+01,-1.224509e+01
  106155, 2.803412e+01,1.333333e+01,-1.529967e+01
  106156, 2.744304e+01,1.333333e+01,-1.912973e+01
  106157, 2.732803e+01,1.333333e+01,-2.326865e+01
  106158, 4.211469e+00,1.666667e+01,-2.257555e+01
  106159, 8.429694e+00,1.666667e+01,-2.150619e+01
  106160, 1.250808e+01,1.666667e+01,-1.966699e+01
  106161, 1.735013e+01,1.666667e+01,-1.736769e+01
  106162, 1.967765e+01,1.666667e+01,-1.253648e+01
  106163, 2.152421e+01,1.666667e+01,-8.400432e+00
  106164, 2.257454e+01,1.666667e+01,-4.192631e+00
  106165, 3.571287e+01,1.666667e+01,-4.089336e+00
  106166, 3.576349e+01,1.666667e+01,-8.121959e+00
  106167, 3.591118e+01,1.666667e+01,-1.202316e+01
  106168, 3.587190e+01,1.666667e+01,-1.590341e+01
  106169, 3.578244e+01,1.666667e+01,-1.983594e+01
  106170, 3.576572e+01,1.666667e+01,-2.382022e+01
  106171, 3.581234e+01,1.666667e+01,-2.784548e+01
  106172, 3.587650e+01,1.666667e+01,-3.188812e+01
  106173, 3.594045e+01,1.666667e+01,-3.594229e+01
  106174, 3.188480e+01,1.666667e+01,-3.587954e+01
  106175, 2.784079e+01,1.666667e+01,-3.581278e+01
  106176, 2.381703e+01,1.666667e+01,-3.576565e+01
  106177, 1.983483e+01,1.666667e+01,-3.578864e+01
  106178, 1.590930e+01,1.666667e+01,-3.588604e+01
  106179, 1.203258e+01,1.666667e+01,-3.589785e+01
  106180, 8.138059e+00,1.666667e+01,-3.570817e+01
  106181, 4.095931e+00,1.666667e+01,-3.571314e+01
  106182, 2.693883e+01,1.666667e+01,-4.453922e+00
  106183, 3.142926e+01,1.666667e+01,-4.223663e+00
  106184, 4.258768e+00,1.666667e+01,-3.135524e+01
  106185, 4.455829e+00,1.666667e+01,-2.692851e+01
  106186, 3.175641e+01,1.666667e+01,-3.176139e+01
  106187, 2.764626e+01,1.666667e+01,-3.161538e+01
  106188, 2.357209e+01,1.666667e+01,-3.150366e+01
  106189, 1.957076e+01,1.666667e+01,-3.163597e+01
  106190, 1.571482e+01,1.666667e+01,-3.185860e+01
  106191, 1.208487e+01,1.666667e+01,-3.190901e+01
  106192, 8.420905e+00,1.666667e+01,-3.136378e+01
  106193, 3.142007e+01,1.666667e+01,-8.396216e+00
  106194, 3.197541e+01,1.666667e+01,-1.209588e+01
  106195, 3.178161e+01,1.666667e+01,-1.573256e+01
  106196, 3.162741e+01,1.666667e+01,-1.957359e+01
  106197, 3.151052e+01,1.666667e+01,-2.357239e+01
  106198, 3.162314e+01,1.666667e+01,-2.764917e+01
  106199, 9.348057e+00,1.666667e+01,-2.642356e+01
  106200, 2.648574e+01,1.666667e+01,-9.363967e+00
  106201, 1.384733e+01,1.666667e+01,-2.423376e+01
  106202, 1.828765e+01,1.666667e+01,-2.297098e+01
  106203, 2.424102e+01,1.666667e+01,-1.386728e+01
  106204, 2.299211e+01,1.666667e+01,-1.832920e+01
  106205, 2.293528e+01,1.666667e+01,-2.293701e+01
  106206, 2.740135e+01,1.666667e+01,-2.740284e+01
  106207, 2.326549e+01,1.666667e+01,-2.732621e+01
  106208, 1.912003e+01,1.666667e+01,-2.743888e+01
  106209, 1.529172e+01,1.666667e+01,-2.804786e+01
  106210, 1.224155e+01,1.666667e+01,-2.879348e+01
  106211, 2.874177e+01,1.666667e+01,-1.224509e+01
  106212, 2.803412e+01,1.666667e+01,-1.529967e+01
  106213, 2.744304e+01,1.666667e+01,-1.912973e+01
  106214, 2.732803e+01,1.666667e+01,-2.326865e+01
  106215, 4.211469e+00,2.000000e+01,-2.257555e+01
  106216, 8.429694e+00,2.000000e+01,-2.150619e+01
  106217, 1.250808e+01,2.000000e+01,-1.966699e+01
  106218, 1.735013e+01,2.000000e+01,-1.736769e+01
  106219, 1.967765e+01,2.000000e+01,-1.253648e+01
  106220, 2.152421e+01,2.000000e+01,-8.400432e+00
  106221, 2.257454e+01,2.000000e+01,-4.192631e+00
  106222, 3.571287e+01,2.000000e+01,-4.089336e+00
  106223, 3.576349e+01,2.000000e+01,-8.121959e+00
  106224, 3.591118e+01,2.000000e+01,-1.202316e+01
  106225, 3.587190e+01,2.000000e+01,-1.590341e+01
  106226, 3.578244e+01,2.000000e+01,-1.983594e+01
  106227, 3.576572e+01,2.000000e+01,-2.382022e+01
  106228, 3.581234e+01,2.000000e+01,-2.784548e+01
  106229, 3.587650e+01,2.000000e+01,-3.188812e+01
  106230, 3.594045e+01,2.000000e+01,-3.594229e+01
  106231, 3.188480e+01,2.000000e+01,-3.587954e+01
  106232, 2.784079e+01,2.000000e+01,-3.581278e+01
  106233, 2.381703e+01,2.000000e+01,-3.576565e+01
  106234, 1.983483e+01,2.000000e+01,-3.578864e+01
  106235, 1.590930e+01,2.000000e+01,-3.588604e+01
  106236, 1.203258e+01,2.000000e+01,-3.589785e+01
  106237, 8.138059e+00,2.000000e+01,-3.570817e+01
  106238, 4.095931e+00,2.000000e+01,-3.571314e+01
  106239, 2.693883e+01,2.000000e+01,-4.453922e+00
  106240, 3.142926e+01,2.000000e+01,-4.223663e+00
  106241, 4.258768e+00,2.000000e+01,-3.135524e+01
  106242, 4.455829e+00,2.000000e+01,-2.692851e+01
  106243, 3.175641e+01,2.000000e+01,-3.176139e+01
  106244, 2.764626e+01,2.000000e+01,-3.161538e+01
  106245, 2.357209e+01,2.000000e+01,-3.150366e+01
  106246, 1.957076e+01,2.000000e+01,-3.163597e+01
  106247, 1.571482e+01,2.000000e+01,-3.185860e+01
  106248, 1.208487e+01,2.000000e+01,-3.190901e+01
  106249, 8.420905e+00,2.000000e+01,-3.136378e+01
  106250, 3.142007e+01,2.000000e+01,-8.396216e+00
  106251, 3.197541e+01,2.000000e+01,-1.209588e+01
  106252, 3.178161e+01,2.000000e+01,-1.573256e+01
  106253, 3.162741e+01,2.000000e+01,-1.957359e+01
  106254, 3.151052e+01,2.000000e+01,-2.357239e+01
  106255, 3.162314e+01,2.000000e+01,-2.764917e+01
  106256, 9.348057e+00,2.000000e+01,-2.642356e+01
  106257, 2.648574e+01,2.000000e+01,-9.363967e+00
  106258, 1.384733e+01,2.000000e+01,-2.423376e+01
  106259, 1.828765e+01,2.000000e+01,-2.297098e+01
  106260, 2.424102e+01,2.000000e+01,-1.386728e+01
  106261, 2.299211e+01,2.000000e+01,-1.832920e+01
  106262, 2.293528e+01,2.000000e+01,-2.293701e+01
  106263, 2.740135e+01,2.000000e+01,-2.740284e+01
  106264, 2.326549e+01,2.000000e+01,-2.732621e+01
  106265, 1.912003e+01,2.000000e+01,-2.743888e+01
  106266, 1.529172e+01,2.000000e+01,-2.804786e+01
  106267, 1.224155e+01,2.000000e+01,-2.879348e+01
  106268, 2.874177e+01,2.000000e+01,-1.224509e+01
  106269, 2.803412e+01,2.000000e+01,-1.529967e+01
  106270, 2.744304e+01,2.000000e+01,-1.912973e+01
  106271, 2.732803e+01,2.000000e+01,-2.326865e+01
  106272, 0.000000e+00,0.000000e+00,-1.900000e+01
  106273, 0.000000e+00,0.000000e+00,-4.000000e+01
  106274, 0.000000e+00,0.000000e+00,-2.320000e+01
  106275, 0.000000e+00,0.000000e+00,-2.740000e+01
  106276, 0.000000e+00,0.000000e+00,-3.160000e+01
  106277, 0.000000e+00,0.000000e+00,-3.580000e+01
  106278, 0.000000e+00,3.333335e+00,-1.900000e+01
  106279, 0.000000e+00,3.333335e+00,-4.000000e+01
  106280, 0.000000e+00,3.333335e+00,-3.580000e+01
  106281, 0.000000e+00,3.333335e+00,-3.160000e+01
  106282, 0.000000e+00,3.333335e+00,-2.740000e+01
  106283, 0.000000e+00,3.333335e+00,-2.320000e+01
  106284, 1.900000e+01,0.000000e+00,0.000000e+00
  106285, 1.863492e+01,0.000000e+00,-3.706716e+00
  106286, 1.755371e+01,0.000000e+00,-7.270985e+00
  106287, 1.579792e+01,0.000000e+00,-1.055583e+01
  106288, 1.343503e+01,0.000000e+00,-1.343503e+01
  106289, 1.055583e+01,0.000000e+00,-1.579792e+01
  106290, 7.270985e+00,0.000000e+00,-1.755371e+01
  106291, 3.706716e+00,0.000000e+00,-1.863492e+01
  106292, 1.900000e+01,3.333335e+00,2.041079e-16
  106293, 3.706716e+00,3.333335e+00,-1.863492e+01
  106294, 7.270985e+00,3.333335e+00,-1.755371e+01
  106295, 1.055583e+01,3.333335e+00,-1.579792e+01
  106296, 1.343503e+01,3.333335e+00,-1.343503e+01
  106297, 1.579792e+01,3.333335e+00,-1.055583e+01
  106298, 1.755371e+01,3.333335e+00,-7.270985e+00
  106299, 1.863492e+01,3.333335e+00,-3.706716e+00
  106300, 4.000000e+01,0.000000e+00,0.000000e+00
  106301, 2.320000e+01,0.000000e+00,0.000000e+00
  106302, 2.740000e+01,0.000000e+00,0.000000e+00
  106303, 3.160000e+01,0.000000e+00,0.000000e+00
  106304, 3.580000e+01,0.000000e+00,0.000000e+00
  106305, 4.000000e+01,3.333335e+00,0.000000e+00
  106306, 2.320000e+01,3.333335e+00,0.000000e+00
  106307, 2.740000e+01,3.333335e+00,0.000000e+00
  106308, 3.160000e+01,3.333335e+00,0.000000e+00
  106309, 3.580000e+01,3.333335e+00,0.000000e+00
  106310, 4.000000e+01,0.000000e+00,-4.000000e+01
  106311, 4.000000e+01,3.333335e+00,-4.000000e+01
  106312, 3.600000e+01,0.000000e+00,-4.000000e+01
  106313, 3.200000e+01,0.000000e+00,-4.000000e+01
  106314, 2.800000e+01,0.000000e+00,-4.000000e+01
  106315, 2.400000e+01,0.000000e+00,-4.000000e+01
  106316, 2.000000e+01,0.000000e+00,-4.000000e+01
  106317, 1.600000e+01,0.000000e+00,-4.000000e+01
  106318, 1.200000e+01,0.000000e+00,-4.000000e+01
  106319, 8.000000e+00,0.000000e+00,-4.000000e+01
  106320, 4.000000e+00,0.000000e+00,-4.000000e+01
  106321, 4.000000e+00,3.333335e+00,-4.000000e+01
  106322, 8.000000e+00,3.333335e+00,-4.000000e+01
  106323, 1.200000e+01,3.333335e+00,-4.000000e+01
  106324, 1.600000e+01,3.333335e+00,-4.000000e+01
  106325, 2.000000e+01,3.333335e+00,-4.000000e+01
  106326, 2.400000e+01,3.333335e+00,-4.000000e+01
  106327, 2.800000e+01,3.333335e+00,-4.000000e+01
  106328, 3.200000e+01,3.333335e+00,-4.000000e+01
  106329, 3.600000e+01,3.333335e+00,-4.000000e+01
  106330, 4.000000e+01,0.000000e+00,-4.000000e+00
  106331, 4.000000e+01,0.000000e+00,-8.000000e+00
  106332, 4.000000e+01,0.000000e+00,-1.200000e+01
  106333, 4.000000e+01,0.000000e+00,-1.600000e+01
  106334, 4.000000e+01,0.000000e+00,-2.000000e+01
  106335, 4.000000e+01,0.000000e+00,-2.400000e+01
  106336, 4.000000e+01,0.000000e+00,-2.800000e+01
  106337, 4.000000e+01,0.000000e+00,-3.200000e+01
  106338, 4.000000e+01,0.000000e+00,-3.600000e+01
  106339, 4.000000e+01,3.333335e+00,-4.000000e+00
  106340, 4.000000e+01,3.333335e+00,-8.000000e+00
  106341, 4.000000e+01,3.333335e+00,-1.200000e+01
  106342, 4.000000e+01,3.333335e+00,-1.600000e+01
  106343, 4.000000e+01,3.333335e+00,-2.000000e+01
  106344, 4.000000e+01,3.333335e+00,-2.400000e+01
  106345, 4.000000e+01,3.333335e+00,-2.800000e+01
  106346, 4.000000e+01,3.333335e+00,-3.200000e+01
  106347, 4.000000e+01,3.333335e+00,-3.600000e+01
  106348, 4.211469e+00,3.333335e+00,-2.257555e+01
  106349, 8.429694e+00,3.333335e+00,-2.150619e+01
  106350, 1.250808e+01,3.333335e+00,-1.966699e+01
  106351, 1.735013e+01,3.333335e+00,-1.736769e+01
  106352, 1.967765e+01,3.333335e+00,-1.253648e+01
  106353, 2.152421e+01,3.333335e+00,-8.400432e+00
  106354, 2.257454e+01,3.333335e+00,-4.192631e+00
  106355, 3.571287e+01,3.333335e+00,-4.089336e+00
  106356, 3.576349e+01,3.333335e+00,-8.121959e+00
  106357, 3.591118e+01,3.333335e+00,-1.202316e+01
  106358, 3.587190e+01,3.333335e+00,-1.590341e+01
  106359, 3.578244e+01,3.333335e+00,-1.983594e+01
  106360, 3.576572e+01,3.333335e+00,-2.382022e+01
  106361, 3.581234e+01,3.333335e+00,-2.784548e+01
  106362, 3.587650e+01,3.333335e+00,-3.188812e+01
  106363, 3.594045e+01,3.333335e+00,-3.594229e+01
  106364, 3.188480e+01,3.333335e+00,-3.587954e+01
  106365, 2.784079e+01,3.333335e+00,-3.581278e+01
  106366, 2.381703e+01,3.333335e+00,-3.576565e+01
  106367, 1.983483e+01,3.333335e+00,-3.578864e+01
  106368, 1.590930e+01,3.333335e+00,-3.588604e+01
  106369, 1.203258e+01,3.333335e+00,-3.589785e+01
  106370, 8.138059e+00,3.333335e+00,-3.570817e+01
  106371, 4.095931e+00,3.333335e+00,-3.571314e+01
  106372, 2.693883e+01,3.333335e+00,-4.453922e+00
  106373, 3.142926e+01,3.333335e+00,-4.223663e+00
  106374, 4.258768e+00,3.333335e+00,-3.135524e+01
  106375, 4.455829e+00,3.333335e+00,-2.692851e+01
  106376, 3.175641e+01,3.333335e+00,-3.176139e+01
  106377, 2.764626e+01,3.333335e+00,-3.161538e+01
  106378, 2.357209e+01,3.333335e+00,-3.150366e+01
  106379, 1.957076e+01,3.333335e+00,-3.163597e+01
  106380, 1.571482e+01,3.333335e+00,-3.185860e+01
  106381, 1.208487e+01,3.333335e+00,-3.190901e+01
  106382, 8.420905e+00,3.333335e+00,-3.136378e+01
  106383, 3.142007e+01,3.333335e+00,-8.396216e+00
  106384, 3.197541e+01,3.333335e+00,-1.209588e+01
  106385, 3.178161e+01,3.333335e+00,-1.573256e+01
  106386, 3.162741e+01,3.333335e+00,-1.957359e+01
  106387, 3.151052e+01,3.333335e+00,-2.357239e+01
  106388, 3.162314e+01,3.333335e+00,-2.764917e+01
  106389, 9.348057e+00,3.333335e+00,-2.642356e+01
  106390, 2.648574e+01,3.333335e+00,-9.363967e+00
  106391, 1.384733e+01,3.333335e+00,-2.423376e+01
  106392, 1.828765e+01,3.333335e+00,-2.297098e+01
  106393, 2.424102e+01,3.333335e+00,-1.386728e+01
  106394, 2.299211e+01,3.333335e+00,-1.832920e+01
  106395, 2.293528e+01,3.333335e+00,-2.293701e+01
  106396, 2.740135e+01,3.333335e+00,-2.740284e+01
  106397, 2.326549e+01,3.333335e+00,-2.732621e+01
  106398, 1.912003e+01,3.333335e+00,-2.743888e+01
  106399, 1.529172e+01,3.333335e+00,-2.804786e+01
  106400, 1.224155e+01,3.333335e+00,-2.879348e+01
  106401, 2.874177e+01,3.333335e+00,-1.224509e+01
  106402, 2.803412e+01,3.333335e+00,-1.529967e+01
  106403, 2.744304e+01,3.333335e+00,-1.912973e+01
  106404, 2.732803e+01,3.333335e+00,-2.326865e+01
  106405, 4.211469e+00,0.000000e+00,-2.257555e+01
  106406, 8.429694e+00,0.000000e+00,-2.150619e+01
  106407, 1.250808e+01,0.000000e+00,-1.966699e+01
  106408, 1.735013e+01,0.000000e+00,-1.736769e+01
  106409, 1.967765e+01,0.000000e+00,-1.253648e+01
  106410, 2.152421e+01,0.000000e+00,-8.400432e+00
  106411, 2.257454e+01,0.000000e+00,-4.192631e+00
  106412, 3.571287e+01,0.000000e+00,-4.089336e+00
  106413, 3.576349e+01,0.000000e+00,-8.121959e+00
  106414, 3.591118e+01,0.000000e+00,-1.202316e+01
  106415, 3.587190e+01,0.000000e+00,-1.590341e+01
  106416, 3.578244e+01,0.000000e+00,-1.983594e+01
  106417, 3.576572e+01,0.000000e+00,-2.382022e+01
  106418, 3.581234e+01,0.000000e+00,-2.784548e+01
  106419, 3.587650e+01,0.000000e+00,-3.188812e+01
  106420, 3.594045e+01,0.000000e+00,-3.594229e+01
  106421, 3.188480e+01,0.000000e+00,-3.587954e+01
  106422, 2.784079e+01,0.000000e+00,-3.581278e+01
  106423, 2.381703e+01,0.000000e+00,-3.576565e+01
  106424, 1.983483e+01,0.000000e+00,-3.578864e+01
  106425, 1.590930e+01,0.000000e+00,-3.588604e+01
  106426, 1.203258e+01,0.000000e+00,-3.589785e+01
  106427, 8.138059e+00,0.000000e+00,-3.570817e+01
  106428, 4.095931e+00,0.000000e+00,-3.571314e+01
  106429, 2.693883e+01,0.000000e+00,-4.453922e+00
  106430, 3.142926e+01,0.000000e+00,-4.223663e+00
  106431, 4.258768e+00,0.000000e+00,-3.135524e+01
  106432, 4.455829e+00,0.000000e+00,-2.692851e+01
  106433, 3.175641e+01,0.000000e+00,-3.176139e+01
  106434, 2.764626e+01,0.000000e+00,-3.161538e+01
  106435, 2.357209e+01,0.000000e+00,-3.150366e+01
  106436, 1.957076e+01,0.000000e+00,-3.163597e+01
  106437, 1.571482e+01,0.000000e+00,-3.185860e+01
  106438, 1.208487e+01,0.000000e+00,-3.190901e+01
  106439, 8.420905e+00,0.000000e+00,-3.136378e+01
  106440, 3.142007e+01,0.000000e+00,-8.396216e+00
  106441, 3.197541e+01,0.000000e+00,-1.209588e+01
  106442, 3.178161e+01,0.000000e+00,-1.573256e+01
  106443, 3.162741e+01,0.000000e+00,-1.957359e+01
  106444, 3.151052e+01,0.000000e+00,-2.357239e+01
  106445, 3.162314e+01,0.000000e+00,-2.764917e+01
  106446, 9.348057e+00,0.000000e+00,-2.642356e+01
  106447, 2.648574e+01,0.000000e+00,-9.363967e+00
  106448, 1.384733e+01,0.000000e+00,-2.423376e+01
  106449, 1.828765e+01,0.000000e+00,-2.297098e+01
  106450, 2.424102e+01,0.000000e+00,-1.386728e+01
  106451, 2.299211e+01,0.000000e+00,-1.832920e+01
  106452, 2.293528e+01,0.000000e+00,-2.293701e+01
  106453, 2.740135e+01,0.000000e+00,-2.740284e+01
  106454, 2.326549e+01,0.000000e+00,-2.732621e+01
  106455, 1.912003e+01,0.000000e+00,-2.743888e+01
  106456, 1.529172e+01,0.000000e+00,-2.804786e+01
  106457, 1.224155e+01,0.000000e+00,-2.879348e+01
  106458, 2.874177e+01,0.000000e+00,-1.224509e+01
  106459, 2.803412e+01,0.000000e+00,-1.529967e+01
  106460, 2.744304e+01,0.000000e+00,-1.912973e+01
  106461, 2.732803e+01,0.000000e+00,-2.326865e+01
  106462, 0.000000e+00,2.000000e+01,-1.050000e+01
  106463, 0.000000e+00,2.000000e+01,-1.900000e+01
  106464, 0.000000e+00,2.000000e+01,-1.333333e+01
  106465, 0.000000e+00,2.000000e+01,-1.616667e+01
  106466, 1.900000e+01,2.000000e+01,1.163414e-16
  106467, 2.703982e+00,2.000000e+01,-1.880661e+01
  106468, 5.352919e+00,2.000000e+01,-1.823037e+01
  106469, 7.892885e+00,2.000000e+01,-1.728301e+01
  106470, 1.027218e+01,2.000000e+01,-1.598382e+01
  106471, 1.244235e+01,2.000000e+01,-1.435924e+01
  106472, 1.435924e+01,2.000000e+01,-1.244235e+01
  106473, 1.598382e+01,2.000000e+01,-1.027218e+01
  106474, 1.728301e+01,2.000000e+01,-7.892885e+00
  106475, 1.823037e+01,2.000000e+01,-5.352919e+00
  106476, 1.880661e+01,2.000000e+01,-2.703982e+00
  106477, 1.050000e+01,2.000000e+01,0.000000e+00
  106478, 1.333333e+01,2.000000e+01,0.000000e+00
  106479, 1.616667e+01,2.000000e+01,0.000000e+00
  106480, 1.023674e+01,2.000000e+01,-2.336470e+00
  106481, 9.460173e+00,2.000000e+01,-4.555779e+00
  106482, 8.209231e+00,2.000000e+01,-6.546643e+00
  106483, 6.546643e+00,2.000000e+01,-8.209231e+00
  106484, 4.555779e+00,2.000000e+01,-9.460173e+00
  106485, 2.336470e+00,2.000000e+01,-1.023674e+01
  106486, 1.284097e+01,2.000000e+01,-2.535234e+00
  106487, 1.211696e+01,2.000000e+01,-5.056696e+00
  106488, 1.117287e+01,2.000000e+01,-7.964110e+00
  106489, 2.713571e+00,2.000000e+01,-1.291576e+01
  106490, 2.626897e+00,2.000000e+01,-1.584531e+01
  106491, 5.156638e+00,2.000000e+01,-1.548843e+01
  106492, 7.184691e+00,2.000000e+01,-1.557382e+01
  106493, 8.504550e+00,2.000000e+01,-1.395003e+01
  106494, 1.049758e+01,2.000000e+01,-1.226048e+01
  106495, 1.250772e+01,2.000000e+01,-1.056790e+01
  106496, 1.431202e+01,2.000000e+01,-9.444892e+00
  106497, 1.448938e+01,2.000000e+01,-7.486775e+00
  106498, 1.513991e+01,2.000000e+01,-5.099791e+00
  106499, 1.573256e+01,2.000000e+01,-2.589367e+00
  106500, 5.875943e+00,2.000000e+01,-1.240099e+01
  106501, 8.496537e+00,2.000000e+01,-1.019424e+01
  106502, 0.000000e+00,2.380000e+01,-1.900000e+01
  106503, 0.000000e+00,2.380000e+01,-1.050000e+01
  106504, 0.000000e+00,2.380000e+01,-1.616667e+01
  106505, 0.000000e+00,2.380000e+01,-1.333333e+01
  106506, 0.000000e+00,2.190000e+01,-1.900000e+01
  106507, 0.000000e+00,2.190000e+01,-1.050000e+01
  106508, 0.000000e+00,2.190000e+01,-1.333333e+01
  106509, 0.000000e+00,2.190000e+01,-1.616667e+01
  106510, 1.900000e+01,2.380000e+01,-1.163414e-16
  106511, 1.880661e+01,2.380000e+01,-2.703982e+00
  106512, 1.823037e+01,2.380000e+01,-5.352919e+00
  106513, 1.728301e+01,2.380000e+01,-7.892885e+00
  106514, 1.598382e+01,2.380000e+01,-1.027218e+01
  106515, 1.435924e+01,2.380000e+01,-1.244235e+01
  106516, 1.244235e+01,2.380000e+01,-1.435924e+01
  106517, 1.027218e+01,2.380000e+01,-1.598382e+01
  106518, 7.892885e+00,2.380000e+01,-1.728301e+01
  106519, 5.352919e+00,2.380000e+01,-1.823037e+01
  106520, 2.703982e+00,2.380000e+01,-1.880661e+01
  106521, 1.900000e+01,2.190000e+01,0.000000e+00
  106522, 2.703982e+00,2.190000e+01,-1.880661e+01
  106523, 5.352919e+00,2.190000e+01,-1.823037e+01
  106524, 7.892885e+00,2.190000e+01,-1.728301e+01
  106525, 1.027218e+01,2.190000e+01,-1.598382e+01
  106526, 1.244235e+01,2.190000e+01,-1.435924e+01
  106527, 1.435924e+01,2.190000e+01,-1.244235e+01
  106528, 1.598382e+01,2.190000e+01,-1.027218e+01
  106529, 1.728301e+01,2.190000e+01,-7.892885e+00
  106530, 1.823037e+01,2.190000e+01,-5.352919e+00
  106531, 1.880661e+01,2.190000e+01,-2.703982e+00
  106532, 1.050000e+01,2.380000e+01,0.000000e+00
  106533, 1.616667e+01,2.380000e+01,0.000000e+00
  106534, 1.333333e+01,2.380000e+01,0.000000e+00
  106535, 1.050000e+01,2.190000e+01,0.000000e+00
  106536, 1.616667e+01,2.190000e+01,0.000000e+00
  106537, 1.333333e+01,2.190000e+01,0.000000e+00
  106538, 2.336470e+00,2.380000e+01,-1.023674e+01
  106539, 4.555779e+00,2.380000e+01,-9.460173e+00
  106540, 6.546643e+00,2.380000e+01,-8.209231e+00
  106541, 8.209231e+00,2.380000e+01,-6.546643e+00
  106542, 9.460173e+00,2.380000e+01,-4.555779e+00
  106543, 1.023674e+01,2.380000e+01,-2.336470e+00
  106544, 2.336470e+00,2.190000e+01,-1.023674e+01
  106545, 4.555779e+00,2.190000e+01,-9.460173e+00
  106546, 6.546643e+00,2.190000e+01,-8.209231e+00
  106547, 8.209231e+00,2.190000e+01,-6.546643e+00
  106548, 9.460173e+00,2.190000e+01,-4.555779e+00
  106549, 1.023674e+01,2.190000e+01,-2.336470e+00
  106550, 1.284097e+01,2.190000e+01,-2.535234e+00
  106551, 1.211696e+01,2.190000e+01,-5.056696e+00
  106552, 1.117287e+01,2.190000e+01,-7.964110e+00
  106553, 8.496537e+00,2.190000e+01,-1.019424e+01
  106554, 5.875943e+00,2.190000e+01,-1.240099e+01
  106555, 2.713571e+00,2.190000e+01,-1.291576e+01
  106556, 2.626897e+00,2.190000e+01,-1.584531e+01
  106557, 5.156638e+00,2.190000e+01,-1.548843e+01
  106558, 7.184691e+00,2.190000e+01,-1.557382e+01
  106559, 8.504550e+00,2.190000e+01,-1.395003e+01
  106560, 1.049758e+01,2.190000e+01,-1.226048e+01
  106561, 1.250772e+01,2.190000e+01,-1.056790e+01
  106562, 1.431202e+01,2.190000e+01,-9.444892e+00
  106563, 1.448938e+01,2.190000e+01,-7.486775e+00
  106564, 1.513991e+01,2.190000e+01,-5.099791e+00
  106565, 1.573256e+01,2.190000e+01,-2.589367e+00
  106566, 1.284097e+01,2.380000e+01,-2.535234e+00
  106567, 1.211696e+01,2.380000e+01,-5.056696e+00
  106568, 1.117287e+01,2.380000e+01,-7.964110e+00
  106569, 8.496537e+00,2.380000e+01,-1.019424e+01
  106570, 5.875943e+00,2.380000e+01,-1.240099e+01
  106571, 2.713571e+00,2.380000e+01,-1.291576e+01
  106572, 2.626897e+00,2.380000e+01,-1.584531e+01
  106573, 5.156638e+00,2.380000e+01,-1.548843e+01
  106574, 7.184691e+00,2.380000e+01,-1.557382e+01
  106575, 8.504550e+00,2.380000e+01,-1.395003e+01
  106576, 1.049758e+01,2.380000e+01,-1.226048e+01
  106577, 1.250772e+01,2.380000e+01,-1.056790e+01
  106578, 1.431202e+01,2.380000e+01,-9.444892e+00
  106579, 1.448938e+01,2.380000e+01,-7.486775e+00
  106580, 1.513991e+01,2.380000e+01,-5.099791e+00
  106581, 1.573256e+01,2.380000e+01,-2.589367e+00
  106582, 0.000000e+00,2.380000e+01,-1.000000e+01
  106583, -3.181724e-15,2.380000e+01,-1.732050e+01
  106584, 0.000000e+00,2.380000e+01,-1.244017e+01
  106585, 0.000000e+00,2.380000e+01,-1.488033e+01
  106586, 1.499999e+01,2.380000e+01,-8.660250e+00
  106587, 2.142856e+00,2.380000e+01,-1.608332e+01
  106588, 4.285712e+00,2.380000e+01,-1.484614e+01
  106589, 6.428568e+00,2.380000e+01,-1.360896e+01
  106590, 8.571425e+00,2.380000e+01,-1.237179e+01
  106591, 1.071428e+01,2.380000e+01,-1.113461e+01
  106592, 1.285714e+01,2.380000e+01,-9.897429e+00
  106593, 1.499999e+01,2.380000e+01,0.000000e+00
  106594, 1.499999e+01,2.380000e+01,-5.773500e+00
  106595, 1.499999e+01,2.380000e+01,-2.886750e+00
  106596, 1.000000e+01,2.380000e+01,0.000000e+00
  106597, 1.250000e+01,2.380000e+01,0.000000e+00
  106598, 9.749279e+00,2.380000e+01,-2.225209e+00
  106599, 9.009689e+00,2.380000e+01,-4.338837e+00
  106600, 7.818315e+00,2.380000e+01,-6.234898e+00
  106601, 6.234898e+00,2.380000e+01,-7.818315e+00
  106602, 4.338837e+00,2.380000e+01,-9.009689e+00
  106603, 2.225209e+00,2.380000e+01,-9.749279e+00
  106604, 1.226584e+01,2.380000e+01,-2.788299e+00
  106605, 1.174034e+01,2.380000e+01,-6.211881e+00
  106606, 9.448827e+00,2.380000e+01,-8.435901e+00
  106607, 7.397173e+00,2.380000e+01,-9.984862e+00
  106608, 1.606823e+00,2.380000e+01,-1.450585e+01
  106609, 5.222677e+00,2.380000e+01,-1.128798e+01
  106610, 2.671722e+00,2.380000e+01,-1.256374e+01
  106611, 0.000000e+00,4.180000e+01,-1.000000e+01
  106612, 0.000000e+00,3.922857e+01,-1.000000e+01
  106613, 0.000000e+00,3.665714e+01,-1.000000e+01
  106614, 0.000000e+00,3.408571e+01,-1.000000e+01
  106615, 0.000000e+00,3.151429e+01,-1.000000e+01
  106616, 0.000000e+00,2.894286e+01,-1.000000e+01
  106617, 0.000000e+00,2.637143e+01,-1.000000e+01
  106618, -3.181724e-15,4.180000e+01,-1.732050e+01
  106619, 0.000000e+00,4.180000e+01,-1.488033e+01
  106620, 0.000000e+00,4.180000e+01,-1.244017e+01
  106621, -3.181724e-15,2.637143e+01,-1.732050e+01
  106622, -3.181724e-15,2.894286e+01,-1.732050e+01
  106623, -3.181724e-15,3.151429e+01,-1.732050e+01
  106624, -3.181724e-15,3.408571e+01,-1.732050e+01
  106625, -3.181724e-15,3.665714e+01,-1.732050e+01
  106626, -3.181724e-15,3.922857e+01,-1.732050e+01
  106627, 0.000000e+00,2.637143e+01,-1.488033e+01
  106628, 0.000000e+00,2.637143e+01,-1.244017e+01
  106629, 0.000000e+00,2.894286e+01,-1.488033e+01
  106630, 0.000000e+00,2.894286e+01,-1.244017e+01
  106631, 0.000000e+00,3.151429e+01,-1.488033e+01
  106632, 0.000000e+00,3.151429e+01,-1.244017e+01
  106633, 0.000000e+00,3.408571e+01,-1.488033e+01
  106634, 0.000000e+00,3.408571e+01,-1.244017e+01
  106635, 0.000000e+00,3.665714e+01,-1.488033e+01
  106636, 0.000000e+00,3.665714e+01,-1.244017e+01
  106637, 0.000000e+00,3.922857e+01,-1.488033e+01
  106638, 0.000000e+00,3.922857e+01,-1.244017e+01
  106639, 1.000000e+01,4.180000e+01,0.000000e+00
  106640, 1.000000e+01,3.922857e+01,-3.936365e-16
  106641, 1.000000e+01,3.665714e+01,-2.361819e-16
  106642, 1.000000e+01,3.408571e+01,-7.872729e-17
  106643, 1.000000e+01,3.151429e+01,7.872729e-17
  106644, 1.000000e+01,2.894286e+01,2.361819e-16
  106645, 1.000000e+01,2.637143e+01,3.936365e-16
  106646, 2.225209e+00,4.180000e+01,-9.749279e+00
  106647, 4.338837e+00,4.180000e+01,-9.009689e+00
  106648, 6.234898e+00,4.180000e+01,-7.818315e+00
  106649, 7.818315e+00,4.180000e+01,-6.234898e+00
  106650, 9.009689e+00,4.180000e+01,-4.338837e+00
  106651, 9.749279e+00,4.180000e+01,-2.225209e+00
  106652, 2.225209e+00,3.922857e+01,-9.749279e+00
  106653, 2.225209e+00,3.665714e+01,-9.749279e+00
  106654, 2.225209e+00,3.408571e+01,-9.749279e+00
  106655, 2.225209e+00,3.151429e+01,-9.749279e+00
  106656, 2.225209e+00,2.894286e+01,-9.749279e+00
  106657, 2.225209e+00,2.637143e+01,-9.749279e+00
  106658, 4.338837e+00,3.922857e+01,-9.009689e+00
  106659, 4.338837e+00,3.665714e+01,-9.009689e+00
  106660, 4.338837e+00,3.408571e+01,-9.009689e+00
  106661, 4.338837e+00,3.151429e+01,-9.009689e+00
  106662, 4.338837e+00,2.894286e+01,-9.009689e+00
  106663, 4.338837e+00,2.637143e+01,-9.009689e+00
  106664, 6.234898e+00,3.922857e+01,-7.818315e+00
  106665, 6.234898e+00,3.665714e+01,-7.818315e+00
  106666, 6.234898e+00,3.408571e+01,-7.818315e+00
  106667, 6.234898e+00,3.151429e+01,-7.818315e+00
  106668, 6.234898e+00,2.894286e+01,-7.818315e+00
  106669, 6.234898e+00,2.637143e+01,-7.818315e+00
  106670, 7.818315e+00,3.922857e+01,-6.234898e+00
  106671, 7.818315e+00,3.665714e+01,-6.234898e+00
  106672, 7.818315e+00,3.408571e+01,-6.234898e+00
  106673, 7.818315e+00,3.151429e+01,-6.234898e+00
  106674, 7.818315e+00,2.894286e+01,-6.234898e+00
  106675, 7.818315e+00,2.637143e+01,-6.234898e+00
  106676, 9.009689e+00,3.922857e+01,-4.338837e+00
  106677, 9.009689e+00,3.665714e+01,-4.338837e+00
  106678, 9.009689e+00,3.408571e+01,-4.338837e+00
  106679, 9.009689e+00,3.151429e+01,-4.338837e+00
  106680, 9.009689e+00,2.894286e+01,-4.338837e+00
  106681, 9.009689e+00,2.637143e+01,-4.338837e+00
  106682, 9.749279e+00,3.922857e+01,-2.225209e+00
  106683, 9.749279e+00,3.665714e+01,-2.225209e+00
  106684, 9.749279e+00,3.408571e+01,-2.225209e+00
  106685, 9.749279e+00,3.151429e+01,-2.225209e+00
  106686, 9.749279e+00,2.894286e+01,-2.225209e+00
  106687, 9.749279e+00,2.637143e+01,-2.225209e+00
  106688, 1.499999e+01,4.180000e+01,0.000000e+00
  106689, 1.499999e+01,2.637143e+01,0.000000e+00
  106690, 1.499999e+01,2.894286e+01,0.000000e+00
  106691, 1.499999e+01,3.151429e+01,0.000000e+00
  106692, 1.499999e+01,3.408571e+01,0.000000e+00
  106693, 1.499999e+01,3.665714e+01,0.000000e+00
  106694, 1.499999e+01,3.922857e+01,0.000000e+00
  106695, 1.250000e+01,4.180000e+01,0.000000e+00
  106696, 1.250000e+01,3.922857e+01,0.000000e+00
  106697, 1.250000e+01,3.665714e+01,0.000000e+00
  106698, 1.250000e+01,3.408571e+01,0.000000e+00
  106699, 1.250000e+01,3.151429e+01,0.000000e+00
  106700, 1.250000e+01,2.894286e+01,0.000000e+00
  106701, 1.250000e+01,2.637143e+01,0.000000e+00
  106702, 1.499999e+01,4.180000e+01,-8.660250e+00
  106703, 1.285714e+01,4.180000e+01,-9.897429e+00
  106704, 1.071428e+01,4.180000e+01,-1.113461e+01
  106705, 8.571425e+00,4.180000e+01,-1.237179e+01
  106706, 6.428568e+00,4.180000e+01,-1.360896e+01
  106707, 4.285712e+00,4.180000e+01,-1.484614e+01
  106708, 2.142856e+00,4.180000e+01,-1.608332e+01
  106709, 1.499999e+01,2.637143e+01,-8.660250e+00
  106710, 1.499999e+01,2.894286e+01,-8.660250e+00
  106711, 1.499999e+01,3.151429e+01,-8.660250e+00
  106712, 1.499999e+01,3.408571e+01,-8.660250e+00
  106713, 1.499999e+01,3.665714e+01,-8.660250e+00
  106714, 1.499999e+01,3.922857e+01,-8.660250e+00
  106715, 2.142856e+00,2.637143e+01,-1.608332e+01
  106716, 2.142856e+00,2.894286e+01,-1.608332e+01
  106717, 2.142856e+00,3.151429e+01,-1.608332e+01
  106718, 2.142856e+00,3.408571e+01,-1.608332e+01
  106719, 2.142856e+00,3.665714e+01,-1.608332e+01
  106720, 2.142856e+00,3.922857e+01,-1.608332e+01
  106721, 4.285712e+00,2.637143e+01,-1.484614e+01
  106722, 4.285712e+00,2.894286e+01,-1.484614e+01
  106723, 4.285712e+00,3.151429e+01,-1.484614e+01
  106724, 4.285712e+00,3.408571e+01,-1.484614e+01
  106725, 4.285712e+00,3.665714e+01,-1.484614e+01
  106726, 4.285712e+00,3.922857e+01,-1.484614e+01
  106727, 6.428568e+00,2.637143e+01,-1.360896e+01
  106728, 6.428568e+00,2.894286e+01,-1.360896e+01
  106729, 6.428568e+00,3.151429e+01,-1.360896e+01
  106730, 6.428568e+00,3.408571e+01,-1.360896e+01
  106731, 6.428568e+00,3.665714e+01,-1.360896e+01
  106732, 6.428568e+00,3.922857e+01,-1.360896e+01
  106733, 8.571425e+00,2.637143e+01,-1.237179e+01
  106734, 8.571425e+00,2.894286e+01,-1.237179e+01
  106735, 8.571425e+00,3.151429e+01,-1.237179e+01
  106736, 8.571425e+00,3.408571e+01,-1.237179e+01
  106737, 8.571425e+00,3.665714e+01,-1.237179e+01
  106738, 8.571425e+00,3.922857e+01,-1.237179e+01
  106739, 1.071428e+01,2.637143e+01,-1.113461e+01
  106740, 1.071428e+01,2.894286e+01,-1.113461e+01
  106741, 1.071428e+01,3.151429e+01,-1.113461e+01
  106742, 1.071428e+01,3.408571e+01,-1.113461e+01
  106743, 1.071428e+01,3.665714e+01,-1.113461e+01
  106744, 1.071428e+01,3.922857e+01,-1.113461e+01
  106745, 1.285714e+01,2.637143e+01,-9.897429e+00
  106746, 1.285714e+01,2.894286e+01,-9.897429e+00
  106747, 1.285714e+01,3.151429e+01,-9.897429e+00
  106748, 1.285714e+01,3.408571e+01,-9.897429e+00
  106749, 1.285714e+01,3.665714e+01,-9.897429e+00
  106750, 1.285714e+01,3.922857e+01,-9.897429e+00
  106751, 1.499999e+01,4.180000e+01,-2.886750e+00
  106752, 1.499999e+01,4.180000e+01,-5.773500e+00
  106753, 1.499999e+01,3.922857e+01,-2.886750e+00
  106754, 1.499999e+01,3.665714e+01,-2.886750e+00
  106755, 1.499999e+01,3.408571e+01,-2.886750e+00
  106756, 1.499999e+01,3.151429e+01,-2.886750e+00
  106757, 1.499999e+01,2.894286e+01,-2.886750e+00
  106758, 1.499999e+01,2.637143e+01,-2.886750e+00
  106759, 1.499999e+01,3.922857e+01,-5.773500e+00
  106760, 1.499999e+01,3.665714e+01,-5.773500e+00
  106761, 1.499999e+01,3.408571e+01,-5.773500e+00
  106762, 1.499999e+01,3.151429e+01,-5.773500e+00
  106763, 1.499999e+01,2.894286e+01,-5.773500e+00
  106764, 1.499999e+01,2.637143e+01,-5.773500e+00
  106765, 1.226584e+01,2.637143e+01,-2.788299e+00
  106766, 1.174034e+01,2.637143e+01,-6.211881e+00
  106767, 9.448827e+00,2.637143e+01,-8.435901e+00
  106768, 7.397173e+00,2.637143e+01,-9.984862e+00
  106769, 5.222677e+00,2.637143e+01,-1.128798e+01
  106770, 2.671722e+00,2.637143e+01,-1.256374e+01
  106771, 1.606823e+00,2.637143e+01,-1.450585e+01
  106772, 1.226584e+01,2.894286e+01,-2.788299e+00
  106773, 1.174034e+01,2.894286e+01,-6.211881e+00
  106774, 9.448827e+00,2.894286e+01,-8.435901e+00
  106775, 7.397173e+00,2.894286e+01,-9.984862e+00
  106776, 5.222677e+00,2.894286e+01,-1.128798e+01
  106777, 2.671722e+00,2.894286e+01,-1.256374e+01
  106778, 1.606823e+00,2.894286e+01,-1.450585e+01
  106779, 1.226584e+01,3.151429e+01,-2.788299e+00
  106780, 1.174034e+01,3.151429e+01,-6.211881e+00
  106781, 9.448827e+00,3.151429e+01,-8.435901e+00
  106782, 7.397173e+00,3.151429e+01,-9.984862e+00
  106783, 5.222677e+00,3.151429e+01,-1.128798e+01
  106784, 2.671722e+00,3.151429e+01,-1.256374e+01
  106785, 1.606823e+00,3.151429e+01,-1.450585e+01
  106786, 1.226584e+01,3.408571e+01,-2.788299e+00
  106787, 1.174034e+01,3.408571e+01,-6.211881e+00
  106788, 9.448827e+00,3.408571e+01,-8.435901e+00
  106789, 7.397173e+00,3.408571e+01,-9.984862e+00
  106790, 5.222677e+00,3.408571e+01,-1.128798e+01
  106791, 2.671722e+00,3.408571e+01,-1.256374e+01
  106792, 1.606823e+00,3.408571e+01,-1.450585e+01
  106793, 1.226584e+01,3.665714e+01,-2.788299e+00
  106794, 1.174034e+01,3.665714e+01,-6.211881e+00
  106795, 9.448827e+00,3.665714e+01,-8.435901e+00
  106796, 7.397173e+00,3.665714e+01,-9.984862e+00
  106797, 5.222677e+00,3.665714e+01,-1.128798e+01
  106798, 2.671722e+00,3.665714e+01,-1.256374e+01
  106799, 1.606823e+00,3.665714e+01,-1.450585e+01
  106800, 1.226584e+01,3.922857e+01,-2.788299e+00
  106801, 1.174034e+01,3.922857e+01,-6.211881e+00
  106802, 9.448827e+00,3.922857e+01,-8.435901e+00
  106803, 7.397173e+00,3.922857e+01,-9.984862e+00
  106804, 5.222677e+00,3.922857e+01,-1.128798e+01
  106805, 2.671722e+00,3.922857e+01,-1.256374e+01
  106806, 1.606823e+00,3.922857e+01,-1.450585e+01
  106807, 1.226584e+01,4.180000e+01,-2.788299e+00
  106808, 1.174034e+01,4.180000e+01,-6.211881e+00
  106809, 9.448827e+00,4.180000e+01,-8.435901e+00
  106810, 7.397173e+00,4.180000e+01,-9.984862e+00
  106811, 5.222677e+00,4.180000e+01,-1.128798e+01
  106812, 2.671722e+00,4.180000e+01,-1.256374e+01
  106813, 1.606823e+00,4.180000e+01,-1.450585e+01
  111240, -1.000000e+01,2.380000e+01,-3.851514e-15
  111241, -9.749279e+00,2.380000e+01,-2.225209e+00
  111242, -9.009689e+00,2.380000e+01,-4.338837e+00
  111243, -7.818315e+00,2.380000e+01,-6.234898e+00
  111244, -6.234898e+00,2.380000e+01,-7.818315e+00
  111245, -4.338837e+00,2.380000e+01,-9.009689e+00
  111246, -2.225209e+00,2.380000e+01,-9.749279e+00
  111247, -2.000000e+00,2.380000e+01,0.000000e+00
  111248, -4.000000e+00,2.380000e+01,0.000000e+00
  111249, -6.000000e+00,2.380000e+01,0.000000e+00
  111250, -8.000000e+00,2.380000e+01,0.000000e+00
  111251, -6.830325e+00,2.380000e+01,-5.307483e+00
  111252, -1.975771e+00,2.380000e+01,-7.050566e+00
  111253, -3.870860e+00,2.380000e+01,-6.487469e+00
  111254, -5.539967e+00,2.380000e+01,-5.836899e+00
  111255, -7.639033e+00,2.380000e+01,-2.024699e+00
  111256, -7.208559e+00,2.380000e+01,-3.898144e+00
  111257, -5.713434e+00,2.380000e+01,-2.015796e+00
  111258, -3.835050e+00,2.380000e+01,-2.141056e+00
  111259, -1.907728e+00,2.380000e+01,-2.295649e+00
  111260, -5.521504e+00,2.380000e+01,-3.990354e+00
  111261, -3.758587e+00,2.380000e+01,-4.291406e+00
  111262, -1.904575e+00,2.380000e+01,-4.642807e+00
  111263, -1.000000e+01,4.180000e+01,0.000000e+00
  111264, -1.000000e+01,4.051429e+01,-4.723638e-16
  111265, -1.000000e+01,3.922857e+01,-3.936365e-16
  111266, -1.000000e+01,3.794286e+01,-3.149092e-16
  111267, -1.000000e+01,3.665714e+01,-2.361819e-16
  111268, -1.000000e+01,3.537143e+01,-1.574546e-16
  111269, -1.000000e+01,3.408571e+01,-7.872729e-17
  111270, -1.000000e+01,3.280000e+01,-2.175410e-31
  111271, -1.000000e+01,3.151429e+01,7.872729e-17
  111272, -1.000000e+01,3.022857e+01,1.574546e-16
  111273, -1.000000e+01,2.894286e+01,2.361819e-16
  111274, -1.000000e+01,2.765714e+01,3.149092e-16
  111275, -1.000000e+01,2.637143e+01,3.936365e-16
  111276, -1.000000e+01,2.508571e+01,4.723638e-16
  111277, -2.225209e+00,4.180000e+01,-9.749279e+00
  111278, -4.338837e+00,4.180000e+01,-9.009689e+00
  111279, -6.234898e+00,4.180000e+01,-7.818315e+00
  111280, -7.818315e+00,4.180000e+01,-6.234898e+00
  111281, -9.009689e+00,4.180000e+01,-4.338837e+00
  111282, -9.749279e+00,4.180000e+01,-2.225209e+00
  111283, -2.225209e+00,4.051429e+01,-9.749279e+00
  111284, -2.225209e+00,3.922857e+01,-9.749279e+00
  111285, -2.225209e+00,3.794286e+01,-9.749279e+00
  111286, -2.225209e+00,3.665714e+01,-9.749279e+00
  111287, -2.225209e+00,3.537143e+01,-9.749279e+00
  111288, -2.225209e+00,3.408571e+01,-9.749279e+00
  111289, -2.225209e+00,3.280000e+01,-9.749279e+00
  111290, -2.225209e+00,3.151429e+01,-9.749279e+00
  111291, -2.225209e+00,3.022857e+01,-9.749279e+00
  111292, -2.225209e+00,2.894286e+01,-9.749279e+00
  111293, -2.225209e+00,2.765714e+01,-9.749279e+00
  111294, -2.225209e+00,2.637143e+01,-9.749279e+00
  111295, -2.225209e+00,2.508571e+01,-9.749279e+00
  111296, -4.338837e+00,4.051429e+01,-9.009689e+00
  111297, -4.338837e+00,3.922857e+01,-9.009689e+00
  111298, -4.338837e+00,3.794286e+01,-9.009689e+00
  111299, -4.338837e+00,3.665714e+01,-9.009689e+00
  111300, -4.338837e+00,3.537143e+01,-9.009689e+00
  111301, -4.338837e+00,3.408571e+01,-9.009689e+00
  111302, -4.338837e+00,3.280000e+01,-9.009689e+00
  111303, -4.338837e+00,3.151429e+01,-9.009689e+00
  111304, -4.338837e+00,3.022857e+01,-9.009689e+00
  111305, -4.338837e+00,2.894286e+01,-9.009689e+00
  111306, -4.338837e+00,2.765714e+01,-9.009689e+00
  111307, -4.338837e+00,2.637143e+01,-9.009689e+00
  111308, -4.338837e+00,2.508571e+01,-9.009689e+00
  111309, -6.234898e+00,4.051429e+01,-7.818315e+00
  111310, -6.234898e+00,3.922857e+01,-7.818315e+00
  111311, -6.234898e+00,3.794286e+01,-7.818315e+00
  111312, -6.234898e+00,3.665714e+01,-7.818315e+00
  111313, -6.234898e+00,3.537143e+01,-7.818315e+00
  111314, -6.234898e+00,3.408571e+01,-7.818315e+00
  111315, -6.234898e+00,3.280000e+01,-7.818315e+00
  111316, -6.234898e+00,3.151429e+01,-7.818315e+00
  111317, -6.234898e+00,3.022857e+01,-7.818315e+00
  111318, -6.234898e+00,2.894286e+01,-7.818315e+00
  111319, -6.234898e+00,2.765714e+01,-7.818315e+00
  111320, -6.234898e+00,2.637143e+01,-7.818315e+00
  111321, -6.234898e+00,2.508571e+01,-7.818315e+00
  111322, -7.818315e+00,4.051429e+01,-6.234898e+00
  111323, -7.818315e+00,3.922857e+01,-6.234898e+00
  111324, -7.818315e+00,3.794286e+01,-6.234898e+00
  111325, -7.818315e+00,3.665714e+01,-6.234898e+00
  111326, -7.818315e+00,3.537143e+01,-6.234898e+00
  111327, -7.818315e+00,3.408571e+01,-6.234898e+00
  111328, -7.818315e+00,3.280000e+01,-6.234898e+00
  111329, -7.818315e+00,3.151429e+01,-6.234898e+00
  111330, -7.818315e+00,3.022857e+01,-6.234898e+00
  111331, -7.818315e+00,2.894286e+01,-6.234898e+00
  111332, -7.818315e+00,2.765714e+01,-6.234898e+00
  111333, -7.818315e+00,2.637143e+01,-6.234898e+00
  111334, -7.818315e+00,2.508571e+01,-6.234898e+00
  111335, -9.009689e+00,4.051429e+01,-4.338837e+00
  111336, -9.009689e+00,3.922857e+01,-4.338837e+00
  111337, -9.009689e+00,3.794286e+01,-4.338837e+00
  111338, -9.009689e+00,3.665714e+01,-4.338837e+00
  111339, -9.009689e+00,3.537143e+01,-4.338837e+00
  111340, -9.009689e+00,3.408571e+01,-4.338837e+00
  111341, -9.009689e+00,3.280000e+01,-4.338837e+00
  111342, -9.009689e+00,3.151429e+01,-4.338837e+00
  111343, -9.009689e+00,3.022857e+01,-4.338837e+00
  111344, -9.009689e+00,2.894286e+01,-4.338837e+00
  111345, -9.009689e+00,2.765714e+01,-4.338837e+00
  111346, -9.009689e+00,2.637143e+01,-4.338837e+00
  111347, -9.009689e+00,2.508571e+01,-4.338837e+00
  111348, -9.749279e+00,4.051429e+01,-2.225209e+00
  111349, -9.749279e+00,3.922857e+01,-2.225209e+00
  111350, -9.749279e+00,3.794286e+01,-2.225209e+00
  111351, -9.749279e+00,3.665714e+01,-2.225209e+00
  111352, -9.749279e+00,3.537143e+01,-2.225209e+00
  111353, -9.749279e+00,3.408571e+01,-2.225209e+00
  111354, -9.749279e+00,3.280000e+01,-2.225209e+00
  111355, -9.749279e+00,3.151429e+01,-2.225209e+00
  111356, -9.749279e+00,3.022857e+01,-2.225209e+00
  111357, -9.749279e+00,2.894286e+01,-2.225209e+00
  111358, -9.749279e+00,2.765714e+01,-2.225209e+00
  111359, -9.749279e+00,2.637143e+01,-2.225209e+00
  111360, -9.749279e+00,2.508571e+01,-2.225209e+00
  111361, -2.000000e+00,4.180000e+01,0.000000e+00
  111362, -4.000000e+00,4.180000e+01,0.000000e+00
  111363, -6.000000e+00,4.180000e+01,0.000000e+00
  111364, -8.000000e+00,4.180000e+01,0.000000e+00
  111365, -2.000000e+00,2.508571e+01,0.000000e+00
  111366, -2.000000e+00,2.637143e+01,0.000000e+00
  111367, -2.000000e+00,2.765714e+01,0.000000e+00
  111368, -2.000000e+00,2.894286e+01,0.000000e+00
  111369, -2.000000e+00,3.022857e+01,0.000000e+00
  111370, -2.000000e+00,3.151429e+01,0.000000e+00
  111371, -2.000000e+00,3.280000e+01,0.000000e+00
  111372, -2.000000e+00,3.408571e+01,0.000000e+00
  111373, -2.000000e+00,3.537143e+01,0.000000e+00
  111374, -2.000000e+00,3.665714e+01,0.000000e+00
  111375, -2.000000e+00,3.794286e+01,0.000000e+00
  111376, -2.000000e+00,3.922857e+01,0.000000e+00
  111377, -2.000000e+00,4.051429e+01,0.000000e+00
  111378, -4.000000e+00,2.508571e+01,0.000000e+00
  111379, -4.000000e+00,2.637143e+01,0.000000e+00
  111380, -4.000000e+00,2.765714e+01,0.000000e+00
  111381, -4.000000e+00,2.894286e+01,0.000000e+00
  111382, -4.000000e+00,3.022857e+01,0.000000e+00
  111383, -4.000000e+00,3.151429e+01,0.000000e+00
  111384, -4.000000e+00,3.280000e+01,0.000000e+00
  111385, -4.000000e+00,3.408571e+01,0.000000e+00
  111386, -4.000000e+00,3.537143e+01,0.000000e+00
  111387, -4.000000e+00,3.665714e+01,0.000000e+00
  111388, -4.000000e+00,3.794286e+01,0.000000e+00
  111389, -4.000000e+00,3.922857e+01,0.000000e+00
  111390, -4.000000e+00,4.051429e+01,0.000000e+00
  111391, -6.000000e+00,2.508571e+01,0.000000e+00
  111392, -6.000000e+00,2.637143e+01,0.000000e+00
  111393, -6.000000e+00,2.765714e+01,0.000000e+00
  111394, -6.000000e+00,2.894286e+01,0.000000e+00
  111395, -6.000000e+00,3.022857e+01,0.000000e+00
  111396, -6.000000e+00,3.151429e+01,0.000000e+00
  111397, -6.000000e+00,3.280000e+01,0.000000e+00
  111398, -6.000000e+00,3.408571e+01,0.000000e+00
  111399, -6.000000e+00,3.537143e+01,0.000000e+00
  111400, -6.000000e+00,3.665714e+01,0.000000e+00
  111401, -6.000000e+00,3.794286e+01,0.000000e+00
  111402, -6.000000e+00,3.922857e+01,0.000000e+00
  111403, -6.000000e+00,4.051429e+01,0.000000e+00
  111404, -8.000000e+00,2.508571e+01,0.000000e+00
  111405, -8.000000e+00,2.637143e+01,0.000000e+00
  111406, -8.000000e+00,2.765714e+01,0.000000e+00
  111407, -8.000000e+00,2.894286e+01,0.000000e+00
  111408, -8.000000e+00,3.022857e+01,0.000000e+00
  111409, -8.000000e+00,3.151429e+01,0.000000e+00
  111410, -8.000000e+00,3.280000e+01,0.000000e+00
  111411, -8.000000e+00,3.408571e+01,0.000000e+00
  111412, -8.000000e+00,3.537143e+01,0.000000e+00
  111413, -8.000000e+00,3.665714e+01,0.000000e+00
  111414, -8.000000e+00,3.794286e+01,0.000000e+00
  111415, -8.000000e+00,3.922857e+01,0.000000e+00
  111416, -8.000000e+00,4.051429e+01,0.000000e+00
  111417, -7.639033e+00,2.508571e+01,-2.024699e+00
  111418, -5.713434e+00,2.508571e+01,-2.015796e+00
  111419, -3.835050e+00,2.508571e+01,-2.141056e+00
  111420, -1.907728e+00,2.508571e+01,-2.295649e+00
  111421, -7.208559e+00,2.508571e+01,-3.898144e+00
  111422, -5.521504e+00,2.508571e+01,-3.990354e+00
  111423, -3.758587e+00,2.508571e+01,-4.291406e+00
  111424, -1.904575e+00,2.508571e+01,-4.642807e+00
  111425, -6.830325e+00,2.508571e+01,-5.307483e+00
  111426, -5.539967e+00,2.508571e+01,-5.836899e+00
  111427, -3.870860e+00,2.508571e+01,-6.487469e+00
  111428, -1.975771e+00,2.508571e+01,-7.050566e+00
  111429, -7.639033e+00,2.637143e+01,-2.024699e+00
  111430, -5.713434e+00,2.637143e+01,-2.015796e+00
  111431, -3.835050e+00,2.637143e+01,-2.141056e+00
  111432, -1.907728e+00,2.637143e+01,-2.295649e+00
  111433, -7.208559e+00,2.637143e+01,-3.898144e+00
  111434, -5.521504e+00,2.637143e+01,-3.990354e+00
  111435, -3.758587e+00,2.637143e+01,-4.291406e+00
  111436, -1.904575e+00,2.637143e+01,-4.642807e+00
  111437, -6.830325e+00,2.637143e+01,-5.307483e+00
  111438, -5.539967e+00,2.637143e+01,-5.836899e+00
  111439, -3.870860e+00,2.637143e+01,-6.487469e+00
  111440, -1.975771e+00,2.637143e+01,-7.050566e+00
  111441, -7.639033e+00,2.765714e+01,-2.024699e+00
  111442, -5.713434e+00,2.765714e+01,-2.015796e+00
  111443, -3.835050e+00,2.765714e+01,-2.141056e+00
  111444, -1.907728e+00,2.765714e+01,-2.295649e+00
  111445, -7.208559e+00,2.765714e+01,-3.898144e+00
  111446, -5.521504e+00,2.765714e+01,-3.990354e+00
  111447, -3.758587e+00,2.765714e+01,-4.291406e+00
  111448, -1.904575e+00,2.765714e+01,-4.642807e+00
  111449, -6.830325e+00,2.765714e+01,-5.307483e+00
  111450, -5.539967e+00,2.765714e+01,-5.836899e+00
  111451, -3.870860e+00,2.765714e+01,-6.487469e+00
  111452, -1.975771e+00,2.765714e+01,-7.050566e+00
  111453, -7.639033e+00,2.894286e+01,-2.024699e+00
  111454, -5.713434e+00,2.894286e+01,-2.015796e+00
  111455, -3.835050e+00,2.894286e+01,-2.141056e+00
  111456, -1.907728e+00,2.894286e+01,-2.295649e+00
  111457, -7.208559e+00,2.894286e+01,-3.898144e+00
  111458, -5.521504e+00,2.894286e+01,-3.990354e+00
  111459, -3.758587e+00,2.894286e+01,-4.291406e+00
  111460, -1.904575e+00,2.894286e+01,-4.642807e+00
  111461, -6.830325e+00,2.894286e+01,-5.307483e+00
  111462, -5.539967e+00,2.894286e+01,-5.836899e+00
  111463, -3.870860e+00,2.894286e+01,-6.487469e+00
  111464, -1.975771e+00,2.894286e+01,-7.050566e+00
  111465, -7.639033e+00,3.022857e+01,-2.024699e+00
  111466, -5.713434e+00,3.022857e+01,-2.015796e+00
  111467, -3.835050e+00,3.022857e+01,-2.141056e+00
  111468, -1.907728e+00,3.022857e+01,-2.295649e+00
  111469, -7.208559e+00,3.022857e+01,-3.898144e+00
  111470, -5.521504e+00,3.022857e+01,-3.990354e+00
  111471, -3.758587e+00,3.022857e+01,-4.291406e+00
  111472, -1.904575e+00,3.022857e+01,-4.642807e+00
  111473, -6.830325e+00,3.022857e+01,-5.307483e+00
  111474, -5.539967e+00,3.022857e+01,-5.836899e+00
  111475, -3.870860e+00,3.022857e+01,-6.487469e+00
  111476, -1.975771e+00,3.022857e+01,-7.050566e+00
  111477, -7.639033e+00,3.151429e+01,-2.024699e+00
  111478, -5.713434e+00,3.151429e+01,-2.015796e+00
  111479, -3.835050e+00,3.151429e+01,-2.141056e+00
  111480, -1.907728e+00,3.151429e+01,-2.295649e+00
  111481, -7.208559e+00,3.151429e+01,-3.898144e+00
  111482, -5.521504e+00,3.151429e+01,-3.990354e+00
  111483, -3.758587e+00,3.151429e+01,-4.291406e+00
  111484, -1.904575e+00,3.151429e+01,-4.642807e+00
  111485, -6.830325e+00,3.151429e+01,-5.307483e+00
  111486, -5.539967e+00,3.151429e+01,-5.836899e+00
  111487, -3.870860e+00,3.151429e+01,-6.487469e+00
  111488, -1.975771e+00,3.151429e+01,-7.050566e+00
  111489, -7.639033e+00,3.280000e+01,-2.024699e+00
  111490, -5.713434e+00,3.280000e+01,-2.015796e+00
  111491, -3.835050e+00,3.280000e+01,-2.141056e+00
  111492, -1.907728e+00,3.280000e+01,-2.295649e+00
  111493, -7.208559e+00,3.280000e+01,-3.898144e+00
  111494, -5.521504e+00,3.280000e+01,-3.990354e+00
  111495, -3.758587e+00,3.280000e+01,-4.291406e+00
  111496, -1.904575e+00,3.280000e+01,-4.642807e+00
  111497, -6.830325e+00,3.280000e+01,-5.307483e+00
  111498, -5.539967e+00,3.280000e+01,-5.836899e+00
  111499, -3.870860e+00,3.280000e+01,-6.487469e+00
  111500, -1.975771e+00,3.280000e+01,-7.050566e+00
  111501, -7.639033e+00,3.408571e+01,-2.024699e+00
  111502, -5.713434e+00,3.408571e+01,-2.015796e+00
  111503, -3.835050e+00,3.408571e+01,-2.141056e+00
  111504, -1.907728e+00,3.408571e+01,-2.295649e+00
  111505, -7.208559e+00,3.408571e+01,-3.898144e+00
  111506, -5.521504e+00,3.408571e+01,-3.990354e+00
  111507, -3.758587e+00,3.408571e+01,-4.291406e+00
  111508, -1.904575e+00,3.408571e+01,-4.642807e+00
  111509, -6.830325e+00,3.408571e+01,-5.307483e+00
  111510, -5.539967e+00,3.408571e+01,-5.836899e+00
  111511, -3.870860e+00,3.408571e+01,-6.487469e+00
  111512, -1.975771e+00,3.408571e+01,-7.050566e+00
  111513, -7.639033e+00,3.537143e+01,-2.024699e+00
  111514, -5.713434e+00,3.537143e+01,-2.015796e+00
  111515, -3.835050e+00,3.537143e+01,-2.141056e+00
  111516, -1.907728e+00,3.537143e+01,-2.295649e+00
  111517, -7.208559e+00,3.537143e+01,-3.898144e+00
  111518, -5.521504e+00,3.537143e+01,-3.990354e+00
  111519, -3.758587e+00,3.537143e+01,-4.291406e+00
  111520, -1.904575e+00,3.537143e+01,-4.642807e+00
  111521, -6.830325e+00,3.537143e+01,-5.307483e+00
  111522, -5.539967e+00,3.537143e+01,-5.836899e+00
  111523, -3.870860e+00,3.537143e+01,-6.487469e+00
  111524, -1.975771e+00,3.537143e+01,-7.050566e+00
  111525, -7.639033e+00,3.665714e+01,-2.024699e+00
  111526, -5.713434e+00,3.665714e+01,-2.015796e+00
  111527, -3.835050e+00,3.665714e+01,-2.141056e+00
  111528, -1.907728e+00,3.665714e+01,-2.295649e+00
  111529, -7.208559e+00,3.665714e+01,-3.898144e+00
  111530, -5.521504e+00,3.665714e+01,-3.990354e+00
  111531, -3.758587e+00,3.665714e+01,-4.291406e+00
  111532, -1.904575e+00,3.665714e+01,-4.642807e+00
  111533, -6.830325e+00,3.665714e+01,-5.307483e+00
  111534, -5.539967e+00,3.665714e+01,-5.836899e+00
  111535, -3.870860e+00,3.665714e+01,-6.487469e+00
  111536, -1.975771e+00,3.665714e+01,-7.050566e+00
  111537, -7.639033e+00,3.794286e+01,-2.024699e+00
  111538, -5.713434e+00,3.794286e+01,-2.015796e+00
  111539, -3.835050e+00,3.794286e+01,-2.141056e+00
  111540, -1.907728e+00,3.794286e+01,-2.295649e+00
  111541, -7.208559e+00,3.794286e+01,-3.898144e+00
  111542, -5.521504e+00,3.794286e+01,-3.990354e+00
  111543, -3.758587e+00,3.794286e+01,-4.291406e+00
  111544, -1.904575e+00,3.794286e+01,-4.642807e+00
  111545, -6.830325e+00,3.794286e+01,-5.307483e+00
  111546, -5.539967e+00,3.794286e+01,-5.836899e+00
  111547, -3.870860e+00,3.794286e+01,-6.487469e+00
  111548, -1.975771e+00,3.794286e+01,-7.050566e+00
  111549, -7.639033e+00,3.922857e+01,-2.024699e+00
  111550, -5.713434e+00,3.922857e+01,-2.015796e+00
  111551, -3.835050e+00,3.922857e+01,-2.141056e+00
  111552, -1.907728e+00,3.922857e+01,-2.295649e+00
  111553, -7.208559e+00,3.922857e+01,-3.898144e+00
  111554, -5.521504e+00,3.922857e+01,-3.990354e+00
  111555, -3.758587e+00,3.922857e+01,-4.291406e+00
  111556, -1.904575e+00,3.922857e+01,-4.642807e+00
  111557, -6.830325e+00,3.922857e+01,-5.307483e+00
  111558, -5.539967e+00,3.922857e+01,-5.836899e+00
  111559, -3.870860e+00,3.922857e+01,-6.487469e+00
  111560, -1.975771e+00,3.922857e+01,-7.050566e+00
  111561, -7.639033e+00,4.051429e+01,-2.024699e+00
  111562, -5.713434e+00,4.051429e+01,-2.015796e+00
  111563, -3.835050e+00,4.051429e+01,-2.141056e+00
  111564, -1.907728e+00,4.051429e+01,-2.295649e+00
  111565, -7.208559e+00,4.051429e+01,-3.898144e+00
  111566, -5.521504e+00,4.051429e+01,-3.990354e+00
  111567, -3.758587e+00,4.051429e+01,-4.291406e+00
  111568, -1.904575e+00,4.051429e+01,-4.642807e+00
  111569, -6.830325e+00,4.051429e+01,-5.307483e+00
  111570, -5.539967e+00,4.051429e+01,-5.836899e+00
  111571, -3.870860e+00,4.051429e+01,-6.487469e+00
  111572, -1.975771e+00,4.051429e+01,-7.050566e+00
  111573, -7.639033e+00,4.180000e+01,-2.024699e+00
  111574, -5.713434e+00,4.180000e+01,-2.015796e+00
  111575, -3.835050e+00,4.180000e+01,-2.141056e+00
  111576, -1.907728e+00,4.180000e+01,-2.295649e+00
  111577, -7.208559e+00,4.180000e+01,-3.898144e+00
  111578, -5.521504e+00,4.180000e+01,-3.990354e+00
  111579, -3.758587e+00,4.180000e+01,-4.291406e+00
  111580, -1.904575e+00,4.180000e+01,-4.642807e+00
  111581, -6.830325e+00,4.180000e+01,-5.307483e+00
  111582, -5.539967e+00,4.180000e+01,-5.836899e+00
  111583, -3.870860e+00,4.180000e+01,-6.487469e+00
  111584, -1.975771e+00,4.180000e+01,-7.050566e+00
  111585, -1.000000e+01,2.000000e+01,-3.618831e-15
  111586, -9.749279e+00,2.000000e+01,-2.225209e+00
  111587, -9.009689e+00,2.000000e+01,-4.338837e+00
  111588, -7.818315e+00,2.000000e+01,-6.234898e+00
  111589, -6.234898e+00,2.000000e+01,-7.818315e+00
  111590, -4.338837e+00,2.000000e+01,-9.009689e+00
  111591, -2.225209e+00,2.000000e+01,-9.749279e+00
  111592, -1.000000e+01,2.253333e+01,-3.878048e-17
  111593, -1.000000e+01,2.126667e+01,3.878048e-17
  111594, -2.225209e+00,2.253333e+01,-9.749279e+00
  111595, -2.225209e+00,2.126667e+01,-9.749279e+00
  111596, -4.338837e+00,2.253333e+01,-9.009689e+00
  111597, -4.338837e+00,2.126667e+01,-9.009689e+00
  111598, -6.234898e+00,2.253333e+01,-7.818315e+00
  111599, -6.234898e+00,2.126667e+01,-7.818315e+00
  111600, -7.818315e+00,2.253333e+01,-6.234898e+00
  111601, -7.818315e+00,2.126667e+01,-6.234898e+00
  111602, -9.009689e+00,2.253333e+01,-4.338837e+00
  111603, -9.009689e+00,2.126667e+01,-4.338837e+00
  111604, -9.749279e+00,2.253333e+01,-2.225209e+00
  111605, -9.749279e+00,2.126667e+01,-2.225209e+00
  111606, -2.000000e+00,2.000000e+01,0.000000e+00
  111607, -4.000000e+00,2.000000e+01,0.000000e+00
  111608, -6.000000e+00,2.000000e+01,0.000000e+00
  111609, -8.000000e+00,2.000000e+01,0.000000e+00
  111610, -2.000000e+00,2.126667e+01,0.000000e+00
  111611, -2.000000e+00,2.253333e+01,0.000000e+00
  111612, -4.000000e+00,2.126667e+01,0.000000e+00
  111613, -4.000000e+00,2.253333e+01,0.000000e+00
  111614, -6.000000e+00,2.126667e+01,0.000000e+00
  111615, -6.000000e+00,2.253333e+01,0.000000e+00
  111616, -8.000000e+00,2.126667e+01,0.000000e+00
  111617, -8.000000e+00,2.253333e+01,0.000000e+00
  111618, -5.713434e+00,2.253333e+01,-2.015796e+00
  111619, -7.639033e+00,2.253333e+01,-2.024699e+00
  111620, -3.835050e+00,2.253333e+01,-2.141056e+00
  111621, -1.907728e+00,2.253333e+01,-2.295649e+00
  111622, -5.521504e+00,2.253333e+01,-3.990354e+00
  111623, -7.208559e+00,2.253333e+01,-3.898144e+00
  111624, -3.758587e+00,2.253333e+01,-4.291406e+00
  111625, -1.904575e+00,2.253333e+01,-4.642807e+00
  111626, -5.539967e+00,2.253333e+01,-5.836899e+00
  111627, -6.830325e+00,2.253333e+01,-5.307483e+00
  111628, -3.870860e+00,2.253333e+01,-6.487469e+00
  111629, -1.975771e+00,2.253333e+01,-7.050566e+00
  111630, -5.713434e+00,2.126667e+01,-2.015796e+00
  111631, -7.639033e+00,2.126667e+01,-2.024699e+00
  111632, -3.835050e+00,2.126667e+01,-2.141056e+00
  111633, -1.907728e+00,2.126667e+01,-2.295649e+00
  111634, -5.521504e+00,2.126667e+01,-3.990354e+00
  111635, -7.208559e+00,2.126667e+01,-3.898144e+00
  111636, -3.758587e+00,2.126667e+01,-4.291406e+00
  111637, -1.904575e+00,2.126667e+01,-4.642807e+00
  111638, -5.539967e+00,2.126667e+01,-5.836899e+00
  111639, -6.830325e+00,2.126667e+01,-5.307483e+00
  111640, -3.870860e+00,2.126667e+01,-6.487469e+00
  111641, -1.975771e+00,2.126667e+01,-7.050566e+00
  111642, -5.713434e+00,2.000000e+01,-2.015796e+00
  111643, -7.639033e+00,2.000000e+01,-2.024699e+00
  111644, -3.835050e+00,2.000000e+01,-2.141056e+00
  111645, -1.907728e+00,2.000000e+01,-2.295649e+00
  111646, -5.521504e+00,2.000000e+01,-3.990354e+00
  111647, -7.208559e+00,2.000000e+01,-3.898144e+00
  111648, -3.758587e+00,2.000000e+01,-4.291406e+00
  111649, -1.904575e+00,2.000000e+01,-4.642807e+00
  111650, -5.539967e+00,2.000000e+01,-5.836899e+00
  111651, -6.830325e+00,2.000000e+01,-5.307483e+00
  111652, -3.870860e+00,2.000000e+01,-6.487469e+00
  111653, -1.975771e+00,2.000000e+01,-7.050566e+00
  111654, -1.000000e+01,0.000000e+00,-2.394184e-15
  111655, -9.749279e+00,0.000000e+00,-2.225209e+00
  111656, -9.009689e+00,0.000000e+00,-4.338837e+00
  111657, -7.818315e+00,0.000000e+00,-6.234898e+00
  111658, -6.234898e+00,0.000000e+00,-7.818315e+00
  111659, -4.338837e+00,0.000000e+00,-9.009689e+00
  111660, -2.225209e+00,0.000000e+00,-9.749279e+00
  111661, -1.000000e+01,1.875000e+01,-5.357830e-16
  111662, -1.000000e+01,1.750000e+01,-4.592425e-16
  111663, -1.000000e+01,1.625000e+01,-3.827021e-16
  111664, -1.000000e+01,1.500000e+01,-3.061617e-16
  111665, -1.000000e+01,1.375000e+01,-2.296213e-16
  111666, -1.000000e+01,1.250000e+01,-1.530808e-16
  111667, -1.000000e+01,1.125000e+01,-7.654042e-17
  111668, -1.000000e+01,1.000000e+01,0.000000e+00
  111669, -1.000000e+01,8.750000e+00,7.654042e-17
  111670, -1.000000e+01,7.500000e+00,1.530808e-16
  111671, -1.000000e+01,6.250000e+00,2.296213e-16
  111672, -1.000000e+01,5.000000e+00,3.061617e-16
  111673, -1.000000e+01,3.750000e+00,3.827021e-16
  111674, -1.000000e+01,2.500000e+00,4.592425e-16
  111675, -1.000000e+01,1.250000e+00,5.357830e-16
  111676, -2.225209e+00,1.875000e+01,-9.749279e+00
  111677, -2.225209e+00,1.750000e+01,-9.749279e+00
  111678, -2.225209e+00,1.625000e+01,-9.749279e+00
  111679, -2.225209e+00,1.500000e+01,-9.749279e+00
  111680, -2.225209e+00,1.375000e+01,-9.749279e+00
  111681, -2.225209e+00,1.250000e+01,-9.749279e+00
  111682, -2.225209e+00,1.125000e+01,-9.749279e+00
  111683, -2.225209e+00,1.000000e+01,-9.749279e+00
  111684, -2.225209e+00,8.750000e+00,-9.749279e+00
  111685, -2.225209e+00,7.500000e+00,-9.749279e+00
  111686, -2.225209e+00,6.250000e+00,-9.749279e+00
  111687, -2.225209e+00,5.000000e+00,-9.749279e+00
  111688, -2.225209e+00,3.750000e+00,-9.749279e+00
  111689, -2.225209e+00,2.500000e+00,-9.749279e+00
  111690, -2.225209e+00,1.250000e+00,-9.749279e+00
  111691, -4.338837e+00,1.875000e+01,-9.009689e+00
  111692, -4.338837e+00,1.750000e+01,-9.009689e+00
  111693, -4.338837e+00,1.625000e+01,-9.009689e+00
  111694, -4.338837e+00,1.500000e+01,-9.009689e+00
  111695, -4.338837e+00,1.375000e+01,-9.009689e+00
  111696, -4.338837e+00,1.250000e+01,-9.009689e+00
  111697, -4.338837e+00,1.125000e+01,-9.009689e+00
  111698, -4.338837e+00,1.000000e+01,-9.009689e+00
  111699, -4.338837e+00,8.750000e+00,-9.009689e+00
  111700, -4.338837e+00,7.500000e+00,-9.009689e+00
  111701, -4.338837e+00,6.250000e+00,-9.009689e+00
  111702, -4.338837e+00,5.000000e+00,-9.009689e+00
  111703, -4.338837e+00,3.750000e+00,-9.009689e+00
  111704, -4.338837e+00,2.500000e+00,-9.009689e+00
  111705, -4.338837e+00,1.250000e+00,-9.009689e+00
  111706, -6.234898e+00,1.875000e+01,-7.818315e+00
  111707, -6.234898e+00,1.750000e+01,-7.818315e+00
  111708, -6.234898e+00,1.625000e+01,-7.818315e+00
  111709, -6.234898e+00,1.500000e+01,-7.818315e+00
  111710, -6.234898e+00,1.375000e+01,-7.818315e+00
  111711, -6.234898e+00,1.250000e+01,-7.818315e+00
  111712, -6.234898e+00,1.125000e+01,-7.818315e+00
  111713, -6.234898e+00,1.000000e+01,-7.818315e+00
  111714, -6.234898e+00,8.750000e+00,-7.818315e+00
  111715, -6.234898e+00,7.500000e+00,-7.818315e+00
  111716, -6.234898e+00,6.250000e+00,-7.818315e+00
  111717, -6.234898e+00,5.000000e+00,-7.818315e+00
  111718, -6.234898e+00,3.750000e+00,-7.818315e+00
  111719, -6.234898e+00,2.500000e+00,-7.818315e+00
  111720, -6.234898e+00,1.250000e+00,-7.818315e+00
  111721, -7.818315e+00,1.875000e+01,-6.234898e+00
  111722, -7.818315e+00,1.750000e+01,-6.234898e+00
  111723, -7.818315e+00,1.625000e+01,-6.234898e+00
  111724, -7.818315e+00,1.500000e+01,-6.234898e+00
  111725, -7.818315e+00,1.375000e+01,-6.234898e+00
  111726, -7.818315e+00,1.250000e+01,-6.234898e+00
  111727, -7.818315e+00,1.125000e+01,-6.234898e+00
  111728, -7.818315e+00,1.000000e+01,-6.234898e+00
  111729, -7.818315e+00,8.750000e+00,-6.234898e+00
  111730, -7.818315e+00,7.500000e+00,-6.234898e+00
  111731, -7.818315e+00,6.250000e+00,-6.234898e+00
  111732, -7.818315e+00,5.000000e+00,-6.234898e+00
  111733, -7.818315e+00,3.750000e+00,-6.234898e+00
  111734, -7.818315e+00,2.500000e+00,-6.234898e+00
  111735, -7.818315e+00,1.250000e+00,-6.234898e+00
  111736, -9.009689e+00,1.875000e+01,-4.338837e+00
  111737, -9.009689e+00,1.750000e+01,-4.338837e+00
  111738, -9.009689e+00,1.625000e+01,-4.338837e+00
  111739, -9.009689e+00,1.500000e+01,-4.338837e+00
  111740, -9.009689e+00,1.375000e+01,-4.338837e+00
  111741, -9.009689e+00,1.250000e+01,-4.338837e+00
  111742, -9.009689e+00,1.125000e+01,-4.338837e+00
  111743, -9.009689e+00,1.000000e+01,-4.338837e+00
  111744, -9.009689e+00,8.750000e+00,-4.338837e+00
  111745, -9.009689e+00,7.500000e+00,-4.338837e+00
  111746, -9.009689e+00,6.250000e+00,-4.338837e+00
  111747, -9.009689e+00,5.000000e+00,-4.338837e+00
  111748, -9.009689e+00,3.750000e+00,-4.338837e+00
  111749, -9.009689e+00,2.500000e+00,-4.338837e+00
  111750, -9.009689e+00,1.250000e+00,-4.338837e+00
  111751, -9.749279e+00,1.875000e+01,-2.225209e+00
  111752, -9.749279e+00,1.750000e+01,-2.225209e+00
  111753, -9.749279e+00,1.625000e+01,-2.225209e+00
  111754, -9.749279e+00,1.500000e+01,-2.225209e+00
  111755, -9.749279e+00,1.375000e+01,-2.225209e+00
  111756, -9.749279e+00,1.250000e+01,-2.225209e+00
  111757, -9.749279e+00,1.125000e+01,-2.225209e+00
  111758, -9.749279e+00,1.000000e+01,-2.225209e+00
  111759, -9.749279e+00,8.750000e+00,-2.225209e+00
  111760, -9.749279e+00,7.500000e+00,-2.225209e+00
  111761, -9.749279e+00,6.250000e+00,-2.225209e+00
  111762, -9.749279e+00,5.000000e+00,-2.225209e+00
  111763, -9.749279e+00,3.750000e+00,-2.225209e+00
  111764, -9.749279e+00,2.500000e+00,-2.225209e+00
  111765, -9.749279e+00,1.250000e+00,-2.225209e+00
  111766, -2.000000e+00,0.000000e+00,0.000000e+00
  111767, -4.000000e+00,0.000000e+00,0.000000e+00
  111768, -6.000000e+00,0.000000e+00,0.000000e+00
  111769, -8.000000e+00,0.000000e+00,0.000000e+00
  111770, -2.000000e+00,1.250000e+00,0.000000e+00
  111771, -2.000000e+00,2.500000e+00,0.000000e+00
  111772, -2.000000e+00,3.750000e+00,0.000000e+00
  111773, -2.000000e+00,5.000000e+00,0.000000e+00
  111774, -2.000000e+00,6.250000e+00,0.000000e+00
  111775, -2.000000e+00,7.500000e+00,0.000000e+00
  111776, -2.000000e+00,8.750000e+00,0.000000e+00
  111777, -2.000000e+00,1.000000e+01,0.000000e+00
  111778, -2.000000e+00,1.125000e+01,0.000000e+00
  111779, -2.000000e+00,1.250000e+01,0.000000e+00
  111780, -2.000000e+00,1.375000e+01,0.000000e+00
  111781, -2.000000e+00,1.500000e+01,0.000000e+00
  111782, -2.000000e+00,1.625000e+01,0.000000e+00
  111783, -2.000000e+00,1.750000e+01,0.000000e+00
  111784, -2.000000e+00,1.875000e+01,0.000000e+00
  111785, -4.000000e+00,1.250000e+00,0.000000e+00
  111786, -4.000000e+00,2.500000e+00,0.000000e+00
  111787, -4.000000e+00,3.750000e+00,0.000000e+00
  111788, -4.000000e+00,5.000000e+00,0.000000e+00
  111789, -4.000000e+00,6.250000e+00,0.000000e+00
  111790, -4.000000e+00,7.500000e+00,0.000000e+00
  111791, -4.000000e+00,8.750000e+00,0.000000e+00
  111792, -4.000000e+00,1.000000e+01,0.000000e+00
  111793, -4.000000e+00,1.125000e+01,0.000000e+00
  111794, -4.000000e+00,1.250000e+01,0.000000e+00
  111795, -4.000000e+00,1.375000e+01,0.000000e+00
  111796, -4.000000e+00,1.500000e+01,0.000000e+00
  111797, -4.000000e+00,1.625000e+01,0.000000e+00
  111798, -4.000000e+00,1.750000e+01,0.000000e+00
  111799, -4.000000e+00,1.875000e+01,0.000000e+00
  111800, -6.000000e+00,1.250000e+00,0.000000e+00
  111801, -6.000000e+00,2.500000e+00,0.000000e+00
  111802, -6.000000e+00,3.750000e+00,0.000000e+00
  111803, -6.000000e+00,5.000000e+00,0.000000e+00
  111804, -6.000000e+00,6.250000e+00,0.000000e+00
  111805, -6.000000e+00,7.500000e+00,0.000000e+00
  111806, -6.000000e+00,8.750000e+00,0.000000e+00
  111807, -6.000000e+00,1.000000e+01,0.000000e+00
  111808, -6.000000e+00,1.125000e+01,0.000000e+00
  111809, -6.000000e+00,1.250000e+01,0.000000e+00
  111810, -6.000000e+00,1.375000e+01,0.000000e+00
  111811, -6.000000e+00,1.500000e+01,0.000000e+00
  111812, -6.000000e+00,1.625000e+01,0.000000e+00
  111813, -6.000000e+00,1.750000e+01,0.000000e+00
  111814, -6.000000e+00,1.875000e+01,0.000000e+00
  111815, -8.000000e+00,1.250000e+00,0.000000e+00
  111816, -8.000000e+00,2.500000e+00,0.000000e+00
  111817, -8.000000e+00,3.750000e+00,0.000000e+00
  111818, -8.000000e+00,5.000000e+00,0.000000e+00
  111819, -8.000000e+00,6.250000e+00,0.000000e+00
  111820, -8.000000e+00,7.500000e+00,0.000000e+00
  111821, -8.000000e+00,8.750000e+00,0.000000e+00
  111822, -8.000000e+00,1.000000e+01,0.000000e+00
  111823, -8.000000e+00,1.125000e+01,0.000000e+00
  111824, -8.000000e+00,1.250000e+01,0.000000e+00
  111825, -8.000000e+00,1.375000e+01,0.000000e+00
  111826, -8.000000e+00,1.500000e+01,0.000000e+00
  111827, -8.000000e+00,1.625000e+01,0.000000e+00
  111828, -8.000000e+00,1.750000e+01,0.000000e+00
  111829, -8.000000e+00,1.875000e+01,0.000000e+00
  111830, -7.639033e+00,1.875000e+01,-2.024699e+00
  111831, -7.208559e+00,1.875000e+01,-3.898144e+00
  111832, -6.830325e+00,1.875000e+01,-5.307483e+00
  111833, -5.539967e+00,1.875000e+01,-5.836899e+00
  111834, -3.870860e+00,1.875000e+01,-6.487469e+00
  111835, -1.975771e+00,1.875000e+01,-7.050566e+00
  111836, -1.904575e+00,1.875000e+01,-4.642807e+00
  111837, -3.758587e+00,1.875000e+01,-4.291406e+00
  111838, -5.521504e+00,1.875000e+01,-3.990354e+00
  111839, -1.907728e+00,1.875000e+01,-2.295649e+00
  111840, -3.835050e+00,1.875000e+01,-2.141056e+00
  111841, -5.713434e+00,1.875000e+01,-2.015796e+00
  111842, -7.639033e+00,1.750000e+01,-2.024699e+00
  111843, -7.208559e+00,1.750000e+01,-3.898144e+00
  111844, -6.830325e+00,1.750000e+01,-5.307483e+00
  111845, -5.539967e+00,1.750000e+01,-5.836899e+00
  111846, -3.870860e+00,1.750000e+01,-6.487469e+00
  111847, -1.975771e+00,1.750000e+01,-7.050566e+00
  111848, -1.904575e+00,1.750000e+01,-4.642807e+00
  111849, -3.758587e+00,1.750000e+01,-4.291406e+00
  111850, -5.521504e+00,1.750000e+01,-3.990354e+00
  111851, -1.907728e+00,1.750000e+01,-2.295649e+00
  111852, -3.835050e+00,1.750000e+01,-2.141056e+00
  111853, -5.713434e+00,1.750000e+01,-2.015796e+00
  111854, -7.639033e+00,1.625000e+01,-2.024699e+00
  111855, -7.208559e+00,1.625000e+01,-3.898144e+00
  111856, -6.830325e+00,1.625000e+01,-5.307483e+00
  111857, -5.539967e+00,1.625000e+01,-5.836899e+00
  111858, -3.870860e+00,1.625000e+01,-6.487469e+00
  111859, -1.975771e+00,1.625000e+01,-7.050566e+00
  111860, -1.904575e+00,1.625000e+01,-4.642807e+00
  111861, -3.758587e+00,1.625000e+01,-4.291406e+00
  111862, -5.521504e+00,1.625000e+01,-3.990354e+00
  111863, -1.907728e+00,1.625000e+01,-2.295649e+00
  111864, -3.835050e+00,1.625000e+01,-2.141056e+00
  111865, -5.713434e+00,1.625000e+01,-2.015796e+00
  111866, -7.639033e+00,1.500000e+01,-2.024699e+00
  111867, -7.208559e+00,1.500000e+01,-3.898144e+00
  111868, -6.830325e+00,1.500000e+01,-5.307483e+00
  111869, -5.539967e+00,1.500000e+01,-5.836899e+00
  111870, -3.870860e+00,1.500000e+01,-6.487469e+00
  111871, -1.975771e+00,1.500000e+01,-7.050566e+00
  111872, -1.904575e+00,1.500000e+01,-4.642807e+00
  111873, -3.758587e+00,1.500000e+01,-4.291406e+00
  111874, -5.521504e+00,1.500000e+01,-3.990354e+00
  111875, -1.907728e+00,1.500000e+01,-2.295649e+00
  111876, -3.835050e+00,1.500000e+01,-2.141056e+00
  111877, -5.713434e+00,1.500000e+01,-2.015796e+00
  111878, -7.639033e+00,1.375000e+01,-2.024699e+00
  111879, -7.208559e+00,1.375000e+01,-3.898144e+00
  111880, -6.830325e+00,1.375000e+01,-5.307483e+00
  111881, -5.539967e+00,1.375000e+01,-5.836899e+00
  111882, -3.870860e+00,1.375000e+01,-6.487469e+00
  111883, -1.975771e+00,1.375000e+01,-7.050566e+00
  111884, -1.904575e+00,1.375000e+01,-4.642807e+00
  111885, -3.758587e+00,1.375000e+01,-4.291406e+00
  111886, -5.521504e+00,1.375000e+01,-3.990354e+00
  111887, -1.907728e+00,1.375000e+01,-2.295649e+00
  111888, -3.835050e+00,1.375000e+01,-2.141056e+00
  111889, -5.713434e+00,1.375000e+01,-2.015796e+00
  111890, -7.639033e+00,1.250000e+01,-2.024699e+00
  111891, -7.208559e+00,1.250000e+01,-3.898144e+00
  111892, -6.830325e+00,1.250000e+01,-5.307483e+00
  111893, -5.539967e+00,1.250000e+01,-5.836899e+00
  111894, -3.870860e+00,1.250000e+01,-6.487469e+00
  111895, -1.975771e+00,1.250000e+01,-7.050566e+00
  111896, -1.904575e+00,1.250000e+01,-4.642807e+00
  111897, -3.758587e+00,1.250000e+01,-4.291406e+00
  111898, -5.521504e+00,1.250000e+01,-3.990354e+00
  111899, -1.907728e+00,1.250000e+01,-2.295649e+00
  111900, -3.835050e+00,1.250000e+01,-2.141056e+00
  111901, -5.713434e+00,1.250000e+01,-2.015796e+00
  111902, -7.639033e+00,1.125000e+01,-2.024699e+00
  111903, -7.208559e+00,1.125000e+01,-3.898144e+00
  111904, -6.830325e+00,1.125000e+01,-5.307483e+00
  111905, -5.539967e+00,1.125000e+01,-5.836899e+00
  111906, -3.870860e+00,1.125000e+01,-6.487469e+00
  111907, -1.975771e+00,1.125000e+01,-7.050566e+00
  111908, -1.904575e+00,1.125000e+01,-4.642807e+00
  111909, -3.758587e+00,1.125000e+01,-4.291406e+00
  111910, -5.521504e+00,1.125000e+01,-3.990354e+00
  111911, -1.907728e+00,1.125000e+01,-2.295649e+00
  111912, -3.835050e+00,1.125000e+01,-2.141056e+00
  111913, -5.713434e+00,1.125000e+01,-2.015796e+00
  111914, -7.639033e+00,1.000000e+01,-2.024699e+00
  111915, -7.208559e+00,1.000000e+01,-3.898144e+00
  111916, -6.830325e+00,1.000000e+01,-5.307483e+00
  111917, -5.539967e+00,1.000000e+01,-5.836899e+00
  111918, -3.870860e+00,1.000000e+01,-6.487469e+00
  111919, -1.975771e+00,1.000000e+01,-7.050566e+00
  111920, -1.904575e+00,1.000000e+01,-4.642807e+00
  111921, -3.758587e+00,1.000000e+01,-4.291406e+00
  111922, -5.521504e+00,1.000000e+01,-3.990354e+00
  111923, -1.907728e+00,1.000000e+01,-2.295649e+00
  111924, -3.835050e+00,1.000000e+01,-2.141056e+00
  111925, -5.713434e+00,1.000000e+01,-2.015796e+00
  111926, -7.639033e+00,8.750000e+00,-2.024699e+00
  111927, -7.208559e+00,8.750000e+00,-3.898144e+00
  111928, -6.830325e+00,8.750000e+00,-5.307483e+00
  111929, -5.539967e+00,8.750000e+00,-5.836899e+00
  111930, -3.870860e+00,8.750000e+00,-6.487469e+00
  111931, -1.975771e+00,8.750000e+00,-7.050566e+00
  111932, -1.904575e+00,8.750000e+00,-4.642807e+00
  111933, -3.758587e+00,8.750000e+00,-4.291406e+00
  111934, -5.521504e+00,8.750000e+00,-3.990354e+00
  111935, -1.907728e+00,8.750000e+00,-2.295649e+00
  111936, -3.835050e+00,8.750000e+00,-2.141056e+00
  111937, -5.713434e+00,8.750000e+00,-2.015796e+00
  111938, -7.639033e+00,7.500000e+00,-2.024699e+00
  111939, -7.208559e+00,7.500000e+00,-3.898144e+00
  111940, -6.830325e+00,7.500000e+00,-5.307483e+00
  111941, -5.539967e+00,7.500000e+00,-5.836899e+00
  111942, -3.870860e+00,7.500000e+00,-6.487469e+00
  111943, -1.975771e+00,7.500000e+00,-7.050566e+00
  111944, -1.904575e+00,7.500000e+00,-4.642807e+00
  111945, -3.758587e+00,7.500000e+00,-4.291406e+00
  111946, -5.521504e+00,7.500000e+00,-3.990354e+00
  111947, -1.907728e+00,7.500000e+00,-2.295649e+00
  111948, -3.835050e+00,7.500000e+00,-2.141056e+00
  111949, -5.713434e+00,7.500000e+00,-2.015796e+00
  111950, -7.639033e+00,6.250000e+00,-2.024699e+00
  111951, -7.208559e+00,6.250000e+00,-3.898144e+00
  111952, -6.830325e+00,6.250000e+00,-5.307483e+00
  111953, -5.539967e+00,6.250000e+00,-5.836899e+00
  111954, -3.870860e+00,6.250000e+00,-6.487469e+00
  111955, -1.975771e+00,6.250000e+00,-7.050566e+00
  111956, -1.904575e+00,6.250000e+00,-4.642807e+00
  111957, -3.758587e+00,6.250000e+00,-4.291406e+00
  111958, -5.521504e+00,6.250000e+00,-3.990354e+00
  111959, -1.907728e+00,6.250000e+00,-2.295649e+00
  111960, -3.835050e+00,6.250000e+00,-2.141056e+00
  111961, -5.713434e+00,6.250000e+00,-2.015796e+00
  111962, -7.639033e+00,5.000000e+00,-2.024699e+00
  111963, -7.208559e+00,5.000000e+00,-3.898144e+00
  111964, -6.830325e+00,5.000000e+00,-5.307483e+00
  111965, -5.539967e+00,5.000000e+00,-5.836899e+00
  111966, -3.870860e+00,5.000000e+00,-6.487469e+00
  111967, -1.975771e+00,5.000000e+00,-7.050566e+00
  111968, -1.904575e+00,5.000000e+00,-4.642807e+00
  111969, -3.758587e+00,5.000000e+00,-4.291406e+00
  111970, -5.521504e+00,5.000000e+00,-3.990354e+00
  111971, -1.907728e+00,5.000000e+00,-2.295649e+00
  111972, -3.835050e+00,5.000000e+00,-2.141056e+00
  111973, -5.713434e+00,5.000000e+00,-2.015796e+00
  111974, -7.639033e+00,3.750000e+00,-2.024699e+00
  111975, -7.208559e+00,3.750000e+00,-3.898144e+00
  111976, -6.830325e+00,3.750000e+00,-5.307483e+00
  111977, -5.539967e+00,3.750000e+00,-5.836899e+00
  111978, -3.870860e+00,3.750000e+00,-6.487469e+00
  111979, -1.975771e+00,3.750000e+00,-7.050566e+00
  111980, -1.904575e+00,3.750000e+00,-4.642807e+00
  111981, -3.758587e+00,3.750000e+00,-4.291406e+00
  111982, -5.521504e+00,3.750000e+00,-3.990354e+00
  111983, -1.907728e+00,3.750000e+00,-2.295649e+00
  111984, -3.835050e+00,3.750000e+00,-2.141056e+00
  111985, -5.713434e+00,3.750000e+00,-2.015796e+00
  111986, -7.639033e+00,2.500000e+00,-2.024699e+00
  111987, -7.208559e+00,2.500000e+00,-3.898144e+00
  111988, -6.830325e+00,2.500000e+00,-5.307483e+00
  111989, -5.539967e+00,2.500000e+00,-5.836899e+00
  111990, -3.870860e+00,2.500000e+00,-6.487469e+00
  111991, -1.975771e+00,2.500000e+00,-7.050566e+00
  111992, -1.904575e+00,2.500000e+00,-4.642807e+00
  111993, -3.758587e+00,2.500000e+00,-4.291406e+00
  111994, -5.521504e+00,2.500000e+00,-3.990354e+00
  111995, -1.907728e+00,2.500000e+00,-2.295649e+00
  111996, -3.835050e+00,2.500000e+00,-2.141056e+00
  111997, -5.713434e+00,2.500000e+00,-2.015796e+00
  111998, -7.639033e+00,1.250000e+00,-2.024699e+00
  111999, -7.208559e+00,1.250000e+00,-3.898144e+00
  112000, -6.830325e+00,1.250000e+00,-5.307483e+00
  112001, -5.539967e+00,1.250000e+00,-5.836899e+00
  112002, -3.870860e+00,1.250000e+00,-6.487469e+00
  112003, -1.975771e+00,1.250000e+00,-7.050566e+00
  112004, -1.904575e+00,1.250000e+00,-4.642807e+00
  112005, -3.758587e+00,1.250000e+00,-4.291406e+00
  112006, -5.521504e+00,1.250000e+00,-3.990354e+00
  112007, -1.907728e+00,1.250000e+00,-2.295649e+00
  112008, -3.835050e+00,1.250000e+00,-2.141056e+00
  112009, -5.713434e+00,1.250000e+00,-2.015796e+00
  112010, -7.639033e+00,0.000000e+00,-2.024699e+00
  112011, -7.208559e+00,0.000000e+00,-3.898144e+00
  112012, -6.830325e+00,0.000000e+00,-5.307483e+00
  112013, -5.539967e+00,0.000000e+00,-5.836899e+00
  112014, -3.870860e+00,0.000000e+00,-6.487469e+00
  112015, -1.975771e+00,0.000000e+00,-7.050566e+00
  112016, -1.904575e+00,0.000000e+00,-4.642807e+00
  112017, -3.758587e+00,0.000000e+00,-4.291406e+00
  112018, -5.521504e+00,0.000000e+00,-3.990354e+00
  112019, -1.907728e+00,0.000000e+00,-2.295649e+00
  112020, -3.835050e+00,0.000000e+00,-2.141056e+00
  112021, -5.713434e+00,0.000000e+00,-2.015796e+00
  112022, -1.000000e+01,-8.000000e+01,0.000000e+00
  112023, -9.749279e+00,-8.000000e+01,-2.225209e+00
  112024, -9.009689e+00,-8.000000e+01,-4.338837e+00
  112025, -7.818315e+00,-8.000000e+01,-6.234898e+00
  112026, -6.234898e+00,-8.000000e+01,-7.818315e+00
  112027, -4.338837e+00,-8.000000e+01,-9.009689e+00
  112028, -2.225209e+00,-8.000000e+01,-9.749279e+00
  112029, -1.000000e+01,-4.000000e+00,-9.246083e-16
  112030, -1.000000e+01,-8.000000e+00,-6.796790e-16
  112031, -1.000000e+01,-1.200000e+01,-4.347496e-16
  112032, -1.000000e+01,-1.600000e+01,-1.898203e-16
  112033, -1.000000e+01,-2.000000e+01,5.510911e-17
  112034, -1.000000e+01,-2.400000e+01,3.000385e-16
  112035, -1.000000e+01,-2.800000e+01,5.449678e-16
  112036, -1.000000e+01,-3.200000e+01,7.898972e-16
  112037, -1.000000e+01,-3.600000e+01,1.034827e-15
  112038, -1.000000e+01,-4.000000e+01,1.279756e-15
  112039, -1.000000e+01,-4.400000e+01,1.524685e-15
  112040, -1.000000e+01,-4.800000e+01,1.769615e-15
  112041, -1.000000e+01,-5.200000e+01,2.014544e-15
  112042, -1.000000e+01,-5.600000e+01,2.259473e-15
  112043, -1.000000e+01,-6.000000e+01,2.504403e-15
  112044, -1.000000e+01,-6.400000e+01,2.749332e-15
  112045, -1.000000e+01,-6.800000e+01,2.994261e-15
  112046, -1.000000e+01,-7.200000e+01,3.239191e-15
  112047, -1.000000e+01,-7.600000e+01,3.484120e-15
  112048, -2.225209e+00,-4.000000e+00,-9.749279e+00
  112049, -2.225209e+00,-8.000000e+00,-9.749279e+00
  112050, -2.225209e+00,-1.200000e+01,-9.749279e+00
  112051, -2.225209e+00,-1.600000e+01,-9.749279e+00
  112052, -2.225209e+00,-2.000000e+01,-9.749279e+00
  112053, -2.225209e+00,-2.400000e+01,-9.749279e+00
  112054, -2.225209e+00,-2.800000e+01,-9.749279e+00
  112055, -2.225209e+00,-3.200000e+01,-9.749279e+00
  112056, -2.225209e+00,-3.600000e+01,-9.749279e+00
  112057, -2.225209e+00,-4.000000e+01,-9.749279e+00
  112058, -2.225209e+00,-4.400000e+01,-9.749279e+00
  112059, -2.225209e+00,-4.800000e+01,-9.749279e+00
  112060, -2.225209e+00,-5.200000e+01,-9.749279e+00
  112061, -2.225209e+00,-5.600000e+01,-9.749279e+00
  112062, -2.225209e+00,-6.000000e+01,-9.749279e+00
  112063, -2.225209e+00,-6.400000e+01,-9.749279e+00
  112064, -2.225209e+00,-6.800000e+01,-9.749279e+00
  112065, -2.225209e+00,-7.200000e+01,-9.749279e+00
  112066, -2.225209e+00,-7.600000e+01,-9.749279e+00
  112067, -4.338837e+00,-4.000000e+00,-9.009689e+00
  112068, -4.338837e+00,-8.000000e+00,-9.009689e+00
  112069, -4.338837e+00,-1.200000e+01,-9.009689e+00
  112070, -4.338837e+00,-1.600000e+01,-9.009689e+00
  112071, -4.338837e+00,-2.000000e+01,-9.009689e+00
  112072, -4.338837e+00,-2.400000e+01,-9.009689e+00
  112073, -4.338837e+00,-2.800000e+01,-9.009689e+00
  112074, -4.338837e+00,-3.200000e+01,-9.009689e+00
  112075, -4.338837e+00,-3.600000e+01,-9.009689e+00
  112076, -4.338837e+00,-4.000000e+01,-9.009689e+00
  112077, -4.338837e+00,-4.400000e+01,-9.009689e+00
  112078, -4.338837e+00,-4.800000e+01,-9.009689e+00
  112079, -4.338837e+00,-5.200000e+01,-9.009689e+00
  112080, -4.338837e+00,-5.600000e+01,-9.009689e+00
  112081, -4.338837e+00,-6.000000e+01,-9.009689e+00
  112082, -4.338837e+00,-6.400000e+01,-9.009689e+00
  112083, -4.338837e+00,-6.800000e+01,-9.009689e+00
  112084, -4.338837e+00,-7.200000e+01,-9.009689e+00
  112085, -4.338837e+00,-7.600000e+01,-9.009689e+00
  112086, -6.234898e+00,-4.000000e+00,-7.818315e+00
  112087, -6.234898e+00,-8.000000e+00,-7.818315e+00
  112088, -6.234898e+00,-1.200000e+01,-7.818315e+00
  112089, -6.234898e+00,-1.600000e+01,-7.818315e+00
  112090, -6.234898e+00,-2.000000e+01,-7.818315e+00
  112091, -6.234898e+00,-2.400000e+01,-7.818315e+00
  112092, -6.234898e+00,-2.800000e+01,-7.818315e+00
  112093, -6.234898e+00,-3.200000e+01,-7.818315e+00
  112094, -6.234898e+00,-3.600000e+01,-7.818315e+00
  112095, -6.234898e+00,-4.000000e+01,-7.818315e+00
  112096, -6.234898e+00,-4.400000e+01,-7.818315e+00
  112097, -6.234898e+00,-4.800000e+01,-7.818315e+00
  112098, -6.234898e+00,-5.200000e+01,-7.818315e+00
  112099, -6.234898e+00,-5.600000e+01,-7.818315e+00
  112100, -6.234898e+00,-6.000000e+01,-7.818315e+00
  112101, -6.234898e+00,-6.400000e+01,-7.818315e+00
  112102, -6.234898e+00,-6.800000e+01,-7.818315e+00
  112103, -6.234898e+00,-7.200000e+01,-7.818315e+00
  112104, -6.234898e+00,-7.600000e+01,-7.818315e+00
  112105, -7.818315e+00,-4.000000e+00,-6.234898e+00
  112106, -7.818315e+00,-8.000000e+00,-6.234898e+00
  112107, -7.818315e+00,-1.200000e+01,-6.234898e+00
  112108, -7.818315e+00,-1.600000e+01,-6.234898e+00
  112109, -7.818315e+00,-2.000000e+01,-6.234898e+00
  112110, -7.818315e+00,-2.400000e+01,-6.234898e+00
  112111, -7.818315e+00,-2.800000e+01,-6.234898e+00
  112112, -7.818315e+00,-3.200000e+01,-6.234898e+00
  112113, -7.818315e+00,-3.600000e+01,-6.234898e+00
  112114, -7.818315e+00,-4.000000e+01,-6.234898e+00
  112115, -7.818315e+00,-4.400000e+01,-6.234898e+00
  112116, -7.818315e+00,-4.800000e+01,-6.234898e+00
  112117, -7.818315e+00,-5.200000e+01,-6.234898e+00
  112118, -7.818315e+00,-5.600000e+01,-6.234898e+00
  112119, -7.818315e+00,-6.000000e+01,-6.234898e+00
  112120, -7.818315e+00,-6.400000e+01,-6.234898e+00
  112121, -7.818315e+00,-6.800000e+01,-6.234898e+00
  112122, -7.818315e+00,-7.200000e+01,-6.234898e+00
  112123, -7.818315e+00,-7.600000e+01,-6.234898e+00
  112124, -9.009689e+00,-4.000000e+00,-4.338837e+00
  112125, -9.009689e+00,-8.000000e+00,-4.338837e+00
  112126, -9.009689e+00,-1.200000e+01,-4.338837e+00
  112127, -9.009689e+00,-1.600000e+01,-4.338837e+00
  112128, -9.009689e+00,-2.000000e+01,-4.338837e+00
  112129, -9.009689e+00,-2.400000e+01,-4.338837e+00
  112130, -9.009689e+00,-2.800000e+01,-4.338837e+00
  112131, -9.009689e+00,-3.200000e+01,-4.338837e+00
  112132, -9.009689e+00,-3.600000e+01,-4.338837e+00
  112133, -9.009689e+00,-4.000000e+01,-4.338837e+00
  112134, -9.009689e+00,-4.400000e+01,-4.338837e+00
  112135, -9.009689e+00,-4.800000e+01,-4.338837e+00
  112136, -9.009689e+00,-5.200000e+01,-4.338837e+00
  112137, -9.009689e+00,-5.600000e+01,-4.338837e+00
  112138, -9.009689e+00,-6.000000e+01,-4.338837e+00
  112139, -9.009689e+00,-6.400000e+01,-4.338837e+00
  112140, -9.009689e+00,-6.800000e+01,-4.338837e+00
  112141, -9.009689e+00,-7.200000e+01,-4.338837e+00
  112142, -9.009689e+00,-7.600000e+01,-4.338837e+00
  112143, -9.749279e+00,-4.000000e+00,-2.225209e+00
  112144, -9.749279e+00,-8.000000e+00,-2.225209e+00
  112145, -9.749279e+00,-1.200000e+01,-2.225209e+00
  112146, -9.749279e+00,-1.600000e+01,-2.225209e+00
  112147, -9.749279e+00,-2.000000e+01,-2.225209e+00
  112148, -9.749279e+00,-2.400000e+01,-2.225209e+00
  112149, -9.749279e+00,-2.800000e+01,-2.225209e+00
  112150, -9.749279e+00,-3.200000e+01,-2.225209e+00
  112151, -9.749279e+00,-3.600000e+01,-2.225209e+00
  112152, -9.749279e+00,-4.000000e+01,-2.225209e+00
  112153, -9.749279e+00,-4.400000e+01,-2.225209e+00
  112154, -9.749279e+00,-4.800000e+01,-2.225209e+00
  112155, -9.749279e+00,-5.200000e+01,-2.225209e+00
  112156, -9.749279e+00,-5.600000e+01,-2.225209e+00
  112157, -9.749279e+00,-6.000000e+01,-2.225209e+00
  112158, -9.749279e+00,-6.400000e+01,-2.225209e+00
  112159, -9.749279e+00,-6.800000e+01,-2.225209e+00
  112160, -9.749279e+00,-7.200000e+01,-2.225209e+00
  112161, -9.749279e+00,-7.600000e+01,-2.225209e+00
  112162, -8.000000e+00,-8.000000e+01,0.000000e+00
  112163, -6.000000e+00,-8.000000e+01,0.000000e+00
  112164, -4.000000e+00,-8.000000e+01,0.000000e+00
  112165, -2.000000e+00,-8.000000e+01,0.000000e+00
  112166, -2.000000e+00,-7.600000e+01,0.000000e+00
  112167, -2.000000e+00,-7.200000e+01,0.000000e+00
  112168, -2.000000e+00,-6.800000e+01,0.000000e+00
  112169, -2.000000e+00,-6.400000e+01,0.000000e+00
  112170, -2.000000e+00,-6.000000e+01,0.000000e+00
  112171, -2.000000e+00,-5.600000e+01,0.000000e+00
  112172, -2.000000e+00,-5.200000e+01,0.000000e+00
  112173, -2.000000e+00,-4.800000e+01,0.000000e+00
  112174, -2.000000e+00,-4.400000e+01,0.000000e+00
  112175, -2.000000e+00,-4.000000e+01,0.000000e+00
  112176, -2.000000e+00,-3.600000e+01,0.000000e+00
  112177, -2.000000e+00,-3.200000e+01,0.000000e+00
  112178, -2.000000e+00,-2.800000e+01,0.000000e+00
  112179, -2.000000e+00,-2.400000e+01,0.000000e+00
  112180, -2.000000e+00,-2.000000e+01,0.000000e+00
  112181, -2.000000e+00,-1.600000e+01,0.000000e+00
  112182, -2.000000e+00,-1.200000e+01,0.000000e+00
  112183, -2.000000e+00,-8.000000e+00,0.000000e+00
  112184, -2.000000e+00,-4.000000e+00,0.000000e+00
  112185, -4.000000e+00,-7.600000e+01,0.000000e+00
  112186, -4.000000e+00,-7.200000e+01,0.000000e+00
  112187, -4.000000e+00,-6.800000e+01,0.000000e+00
  112188, -4.000000e+00,-6.400000e+01,0.000000e+00
  112189, -4.000000e+00,-6.000000e+01,0.000000e+00
  112190, -4.000000e+00,-5.600000e+01,0.000000e+00
  112191, -4.000000e+00,-5.200000e+01,0.000000e+00
  112192, -4.000000e+00,-4.800000e+01,0.000000e+00
  112193, -4.000000e+00,-4.400000e+01,0.000000e+00
  112194, -4.000000e+00,-4.000000e+01,0.000000e+00
  112195, -4.000000e+00,-3.600000e+01,0.000000e+00
  112196, -4.000000e+00,-3.200000e+01,0.000000e+00
  112197, -4.000000e+00,-2.800000e+01,0.000000e+00
  112198, -4.000000e+00,-2.400000e+01,0.000000e+00
  112199, -4.000000e+00,-2.000000e+01,0.000000e+00
  112200, -4.000000e+00,-1.600000e+01,0.000000e+00
  112201, -4.000000e+00,-1.200000e+01,0.000000e+00
  112202, -4.000000e+00,-8.000000e+00,0.000000e+00
  112203, -4.000000e+00,-4.000000e+00,0.000000e+00
  112204, -6.000000e+00,-7.600000e+01,0.000000e+00
  112205, -6.000000e+00,-7.200000e+01,0.000000e+00
  112206, -6.000000e+00,-6.800000e+01,0.000000e+00
  112207, -6.000000e+00,-6.400000e+01,0.000000e+00
  112208, -6.000000e+00,-6.000000e+01,0.000000e+00
  112209, -6.000000e+00,-5.600000e+01,0.000000e+00
  112210, -6.000000e+00,-5.200000e+01,0.000000e+00
  112211, -6.000000e+00,-4.800000e+01,0.000000e+00
  112212, -6.000000e+00,-4.400000e+01,0.000000e+00
  112213, -6.000000e+00,-4.000000e+01,0.000000e+00
  112214, -6.000000e+00,-3.600000e+01,0.000000e+00
  112215, -6.000000e+00,-3.200000e+01,0.000000e+00
  112216, -6.000000e+00,-2.800000e+01,0.000000e+00
  112217, -6.000000e+00,-2.400000e+01,0.000000e+00
  112218, -6.000000e+00,-2.000000e+01,0.000000e+00
  112219, -6.000000e+00,-1.600000e+01,0.000000e+00
  112220, -6.000000e+00,-1.200000e+01,0.000000e+00
  112221, -6.000000e+00,-8.000000e+00,0.000000e+00
  112222, -6.000000e+00,-4.000000e+00,0.000000e+00
  112223, -8.000000e+00,-7.600000e+01,0.000000e+00
  112224, -8.000000e+00,-7.200000e+01,0.000000e+00
  112225, -8.000000e+00,-6.800000e+01,0.000000e+00
  112226, -8.000000e+00,-6.400000e+01,0.000000e+00
  112227, -8.000000e+00,-6.000000e+01,0.000000e+00
  112228, -8.000000e+00,-5.600000e+01,0.000000e+00
  112229, -8.000000e+00,-5.200000e+01,0.000000e+00
  112230, -8.000000e+00,-4.800000e+01,0.000000e+00
  112231, -8.000000e+00,-4.400000e+01,0.000000e+00
  112232, -8.000000e+00,-4.000000e+01,0.000000e+00
  112233, -8.000000e+00,-3.600000e+01,0.000000e+00
  112234, -8.000000e+00,-3.200000e+01,0.000000e+00
  112235, -8.000000e+00,-2.800000e+01,0.000000e+00
  112236, -8.000000e+00,-2.400000e+01,0.000000e+00
  112237, -8.000000e+00,-2.000000e+01,0.000000e+00
  112238, -8.000000e+00,-1.600000e+01,0.000000e+00
  112239, -8.000000e+00,-1.200000e+01,0.000000e+00
  112240, -8.000000e+00,-8.000000e+00,0.000000e+00
  112241, -8.000000e+00,-4.000000e+00,0.000000e+00
  112242, -5.713434e+00,-4.000000e+00,-2.015796e+00
  112243, -7.639033e+00,-4.000000e+00,-2.024699e+00
  112244, -3.835050e+00,-4.000000e+00,-2.141056e+00
  112245, -1.907728e+00,-4.000000e+00,-2.295649e+00
  112246, -5.521504e+00,-4.000000e+00,-3.990354e+00
  112247, -7.208559e+00,-4.000000e+00,-3.898144e+00
  112248, -3.758587e+00,-4.000000e+00,-4.291406e+00
  112249, -1.904575e+00,-4.000000e+00,-4.642807e+00
  112250, -5.539967e+00,-4.000000e+00,-5.836899e+00
  112251, -6.830325e+00,-4.000000e+00,-5.307483e+00
  112252, -3.870860e+00,-4.000000e+00,-6.487469e+00
  112253, -1.975771e+00,-4.000000e+00,-7.050566e+00
  112254, -5.713434e+00,-8.000000e+00,-2.015796e+00
  112255, -7.639033e+00,-8.000000e+00,-2.024699e+00
  112256, -3.835050e+00,-8.000000e+00,-2.141056e+00
  112257, -1.907728e+00,-8.000000e+00,-2.295649e+00
  112258, -5.521504e+00,-8.000000e+00,-3.990354e+00
  112259, -7.208559e+00,-8.000000e+00,-3.898144e+00
  112260, -3.758587e+00,-8.000000e+00,-4.291406e+00
  112261, -1.904575e+00,-8.000000e+00,-4.642807e+00
  112262, -5.539967e+00,-8.000000e+00,-5.836899e+00
  112263, -6.830325e+00,-8.000000e+00,-5.307483e+00
  112264, -3.870860e+00,-8.000000e+00,-6.487469e+00
  112265, -1.975771e+00,-8.000000e+00,-7.050566e+00
  112266, -5.713434e+00,-1.200000e+01,-2.015796e+00
  112267, -7.639033e+00,-1.200000e+01,-2.024699e+00
  112268, -3.835050e+00,-1.200000e+01,-2.141056e+00
  112269, -1.907728e+00,-1.200000e+01,-2.295649e+00
  112270, -5.521504e+00,-1.200000e+01,-3.990354e+00
  112271, -7.208559e+00,-1.200000e+01,-3.898144e+00
  112272, -3.758587e+00,-1.200000e+01,-4.291406e+00
  112273, -1.904575e+00,-1.200000e+01,-4.642807e+00
  112274, -5.539967e+00,-1.200000e+01,-5.836899e+00
  112275, -6.830325e+00,-1.200000e+01,-5.307483e+00
  112276, -3.870860e+00,-1.200000e+01,-6.487469e+00
  112277, -1.975771e+00,-1.200000e+01,-7.050566e+00
  112278, -5.713434e+00,-1.600000e+01,-2.015796e+00
  112279, -7.639033e+00,-1.600000e+01,-2.024699e+00
  112280, -3.835050e+00,-1.600000e+01,-2.141056e+00
  112281, -1.907728e+00,-1.600000e+01,-2.295649e+00
  112282, -5.521504e+00,-1.600000e+01,-3.990354e+00
  112283, -7.208559e+00,-1.600000e+01,-3.898144e+00
  112284, -3.758587e+00,-1.600000e+01,-4.291406e+00
  112285, -1.904575e+00,-1.600000e+01,-4.642807e+00
  112286, -5.539967e+00,-1.600000e+01,-5.836899e+00
  112287, -6.830325e+00,-1.600000e+01,-5.307483e+00
  112288, -3.870860e+00,-1.600000e+01,-6.487469e+00
  112289, -1.975771e+00,-1.600000e+01,-7.050566e+00
  112290, -5.713434e+00,-2.000000e+01,-2.015796e+00
  112291, -7.639033e+00,-2.000000e+01,-2.024699e+00
  112292, -3.835050e+00,-2.000000e+01,-2.141056e+00
  112293, -1.907728e+00,-2.000000e+01,-2.295649e+00
  112294, -5.521504e+00,-2.000000e+01,-3.990354e+00
  112295, -7.208559e+00,-2.000000e+01,-3.898144e+00
  112296, -3.758587e+00,-2.000000e+01,-4.291406e+00
  112297, -1.904575e+00,-2.000000e+01,-4.642807e+00
  112298, -5.539967e+00,-2.000000e+01,-5.836899e+00
  112299, -6.830325e+00,-2.000000e+01,-5.307483e+00
  112300, -3.870860e+00,-2.000000e+01,-6.487469e+00
  112301, -1.975771e+00,-2.000000e+01,-7.050566e+00
  112302, -5.713434e+00,-2.400000e+01,-2.015796e+00
  112303, -7.639033e+00,-2.400000e+01,-2.024699e+00
  112304, -3.835050e+00,-2.400000e+01,-2.141056e+00
  112305, -1.907728e+00,-2.400000e+01,-2.295649e+00
  112306, -5.521504e+00,-2.400000e+01,-3.990354e+00
  112307, -7.208559e+00,-2.400000e+01,-3.898144e+00
  112308, -3.758587e+00,-2.400000e+01,-4.291406e+00
  112309, -1.904575e+00,-2.400000e+01,-4.642807e+00
  112310, -5.539967e+00,-2.400000e+01,-5.836899e+00
  112311, -6.830325e+00,-2.400000e+01,-5.307483e+00
  112312, -3.870860e+00,-2.400000e+01,-6.487469e+00
  112313, -1.975771e+00,-2.400000e+01,-7.050566e+00
  112314, -5.713434e+00,-2.800000e+01,-2.015796e+00
  112315, -7.639033e+00,-2.800000e+01,-2.024699e+00
  112316, -3.835050e+00,-2.800000e+01,-2.141056e+00
  112317, -1.907728e+00,-2.800000e+01,-2.295649e+00
  112318, -5.521504e+00,-2.800000e+01,-3.990354e+00
  112319, -7.208559e+00,-2.800000e+01,-3.898144e+00
  112320, -3.758587e+00,-2.800000e+01,-4.291406e+00
  112321, -1.904575e+00,-2.800000e+01,-4.642807e+00
  112322, -5.539967e+00,-2.800000e+01,-5.836899e+00
  112323, -6.830325e+00,-2.800000e+01,-5.307483e+00
  112324, -3.870860e+00,-2.800000e+01,-6.487469e+00
  112325, -1.975771e+00,-2.800000e+01,-7.050566e+00
  112326, -5.713434e+00,-3.200000e+01,-2.015796e+00
  112327, -7.639033e+00,-3.200000e+01,-2.024699e+00
  112328, -3.835050e+00,-3.200000e+01,-2.141056e+00
  112329, -1.907728e+00,-3.200000e+01,-2.295649e+00
  112330, -5.521504e+00,-3.200000e+01,-3.990354e+00
  112331, -7.208559e+00,-3.200000e+01,-3.898144e+00
  112332, -3.758587e+00,-3.200000e+01,-4.291406e+00
  112333, -1.904575e+00,-3.200000e+01,-4.642807e+00
  112334, -5.539967e+00,-3.200000e+01,-5.836899e+00
  112335, -6.830325e+00,-3.200000e+01,-5.307483e+00
  112336, -3.870860e+00,-3.200000e+01,-6.487469e+00
  112337, -1.975771e+00,-3.200000e+01,-7.050566e+00
  112338, -5.713434e+00,-3.600000e+01,-2.015796e+00
  112339, -7.639033e+00,-3.600000e+01,-2.024699e+00
  112340, -3.835050e+00,-3.600000e+01,-2.141056e+00
  112341, -1.907728e+00,-3.600000e+01,-2.295649e+00
  112342, -5.521504e+00,-3.600000e+01,-3.990354e+00
  112343, -7.208559e+00,-3.600000e+01,-3.898144e+00
  112344, -3.758587e+00,-3.600000e+01,-4.291406e+00
  112345, -1.904575e+00,-3.600000e+01,-4.642807e+00
  112346, -5.539967e+00,-3.600000e+01,-5.836899e+00
  112347, -6.830325e+00,-3.600000e+01,-5.307483e+00
  112348, -3.870860e+00,-3.600000e+01,-6.487469e+00
  112349, -1.975771e+00,-3.600000e+01,-7.050566e+00
  112350, -5.713434e+00,-4.000000e+01,-2.015796e+00
  112351, -7.639033e+00,-4.000000e+01,-2.024699e+00
  112352, -3.835050e+00,-4.000000e+01,-2.141056e+00
  112353, -1.907728e+00,-4.000000e+01,-2.295649e+00
  112354, -5.521504e+00,-4.000000e+01,-3.990354e+00
  112355, -7.208559e+00,-4.000000e+01,-3.898144e+00
  112356, -3.758587e+00,-4.000000e+01,-4.291406e+00
  112357, -1.904575e+00,-4.000000e+01,-4.642807e+00
  112358, -5.539967e+00,-4.000000e+01,-5.836899e+00
  112359, -6.830325e+00,-4.000000e+01,-5.307483e+00
  112360, -3.870860e+00,-4.000000e+01,-6.487469e+00
  112361, -1.975771e+00,-4.000000e+01,-7.050566e+00
  112362, -5.713434e+00,-4.400000e+01,-2.015796e+00
  112363, -7.639033e+00,-4.400000e+01,-2.024699e+00
  112364, -3.835050e+00,-4.400000e+01,-2.141056e+00
  112365, -1.907728e+00,-4.400000e+01,-2.295649e+00
  112366, -5.521504e+00,-4.400000e+01,-3.990354e+00
  112367, -7.208559e+00,-4.400000e+01,-3.898144e+00
  112368, -3.758587e+00,-4.400000e+01,-4.291406e+00
  112369, -1.904575e+00,-4.400000e+01,-4.642807e+00
  112370, -5.539967e+00,-4.400000e+01,-5.836899e+00
  112371, -6.830325e+00,-4.400000e+01,-5.307483e+00
  112372, -3.870860e+00,-4.400000e+01,-6.487469e+00
  112373, -1.975771e+00,-4.400000e+01,-7.050566e+00
  112374, -5.713434e+00,-4.800000e+01,-2.015796e+00
  112375, -7.639033e+00,-4.800000e+01,-2.024699e+00
  112376, -3.835050e+00,-4.800000e+01,-2.141056e+00
  112377, -1.907728e+00,-4.800000e+01,-2.295649e+00
  112378, -5.521504e+00,-4.800000e+01,-3.990354e+00
  112379, -7.208559e+00,-4.800000e+01,-3.898144e+00
  112380, -3.758587e+00,-4.800000e+01,-4.291406e+00
  112381, -1.904575e+00,-4.800000e+01,-4.642807e+00
  112382, -5.539967e+00,-4.800000e+01,-5.836899e+00
  112383, -6.830325e+00,-4.800000e+01,-5.307483e+00
  112384, -3.870860e+00,-4.800000e+01,-6.487469e+00
  112385, -1.975771e+00,-4.800000e+01,-7.050566e+00
  112386, -5.713434e+00,-5.200000e+01,-2.015796e+00
  112387, -7.639033e+00,-5.200000e+01,-2.024699e+00
  112388, -3.835050e+00,-5.200000e+01,-2.141056e+00
  112389, -1.907728e+00,-5.200000e+01,-2.295649e+00
  112390, -5.521504e+00,-5.200000e+01,-3.990354e+00
  112391, -7.208559e+00,-5.200000e+01,-3.898144e+00
  112392, -3.758587e+00,-5.200000e+01,-4.291406e+00
  112393, -1.904575e+00,-5.200000e+01,-4.642807e+00
  112394, -5.539967e+00,-5.200000e+01,-5.836899e+00
  112395, -6.830325e+00,-5.200000e+01,-5.307483e+00
  112396, -3.870860e+00,-5.200000e+01,-6.487469e+00
  112397, -1.975771e+00,-5.200000e+01,-7.050566e+00
  112398, -5.713434e+00,-5.600000e+01,-2.015796e+00
  112399, -7.639033e+00,-5.600000e+01,-2.024699e+00
  112400, -3.835050e+00,-5.600000e+01,-2.141056e+00
  112401, -1.907728e+00,-5.600000e+01,-2.295649e+00
  112402, -5.521504e+00,-5.600000e+01,-3.990354e+00
  112403, -7.208559e+00,-5.600000e+01,-3.898144e+00
  112404, -3.758587e+00,-5.600000e+01,-4.291406e+00
  112405, -1.904575e+00,-5.600000e+01,-4.642807e+00
  112406, -5.539967e+00,-5.600000e+01,-5.836899e+00
  112407, -6.830325e+00,-5.600000e+01,-5.307483e+00
  112408, -3.870860e+00,-5.600000e+01,-6.487469e+00
  112409, -1.975771e+00,-5.600000e+01,-7.050566e+00
  112410, -5.713434e+00,-6.000000e+01,-2.015796e+00
  112411, -7.639033e+00,-6.000000e+01,-2.024699e+00
  112412, -3.835050e+00,-6.000000e+01,-2.141056e+00
  112413, -1.907728e+00,-6.000000e+01,-2.295649e+00
  112414, -5.521504e+00,-6.000000e+01,-3.990354e+00
  112415, -7.208559e+00,-6.000000e+01,-3.898144e+00
  112416, -3.758587e+00,-6.000000e+01,-4.291406e+00
  112417, -1.904575e+00,-6.000000e+01,-4.642807e+00
  112418, -5.539967e+00,-6.000000e+01,-5.836899e+00
  112419, -6.830325e+00,-6.000000e+01,-5.307483e+00
  112420, -3.870860e+00,-6.000000e+01,-6.487469e+00
  112421, -1.975771e+00,-6.000000e+01,-7.050566e+00
  112422, -5.713434e+00,-6.400000e+01,-2.015796e+00
  112423, -7.639033e+00,-6.400000e+01,-2.024699e+00
  112424, -3.835050e+00,-6.400000e+01,-2.141056e+00
  112425, -1.907728e+00,-6.400000e+01,-2.295649e+00
  112426, -5.521504e+00,-6.400000e+01,-3.990354e+00
  112427, -7.208559e+00,-6.400000e+01,-3.898144e+00
  112428, -3.758587e+00,-6.400000e+01,-4.291406e+00
  112429, -1.904575e+00,-6.400000e+01,-4.642807e+00
  112430, -5.539967e+00,-6.400000e+01,-5.836899e+00
  112431, -6.830325e+00,-6.400000e+01,-5.307483e+00
  112432, -3.870860e+00,-6.400000e+01,-6.487469e+00
  112433, -1.975771e+00,-6.400000e+01,-7.050566e+00
  112434, -5.713434e+00,-6.800000e+01,-2.015796e+00
  112435, -7.639033e+00,-6.800000e+01,-2.024699e+00
  112436, -3.835050e+00,-6.800000e+01,-2.141056e+00
  112437, -1.907728e+00,-6.800000e+01,-2.295649e+00
  112438, -5.521504e+00,-6.800000e+01,-3.990354e+00
  112439, -7.208559e+00,-6.800000e+01,-3.898144e+00
  112440, -3.758587e+00,-6.800000e+01,-4.291406e+00
  112441, -1.904575e+00,-6.800000e+01,-4.642807e+00
  112442, -5.539967e+00,-6.800000e+01,-5.836899e+00
  112443, -6.830325e+00,-6.800000e+01,-5.307483e+00
  112444, -3.870860e+00,-6.800000e+01,-6.487469e+00
  112445, -1.975771e+00,-6.800000e+01,-7.050566e+00
  112446, -5.713434e+00,-7.200000e+01,-2.015796e+00
  112447, -7.639033e+00,-7.200000e+01,-2.024699e+00
  112448, -3.835050e+00,-7.200000e+01,-2.141056e+00
  112449, -1.907728e+00,-7.200000e+01,-2.295649e+00
  112450, -5.521504e+00,-7.200000e+01,-3.990354e+00
  112451, -7.208559e+00,-7.200000e+01,-3.898144e+00
  112452, -3.758587e+00,-7.200000e+01,-4.291406e+00
  112453, -1.904575e+00,-7.200000e+01,-4.642807e+00
  112454, -5.539967e+00,-7.200000e+01,-5.836899e+00
  112455, -6.830325e+00,-7.200000e+01,-5.307483e+00
  112456, -3.870860e+00,-7.200000e+01,-6.487469e+00
  112457, -1.975771e+00,-7.200000e+01,-7.050566e+00
  112458, -5.713434e+00,-7.600000e+01,-2.015796e+00
  112459, -7.639033e+00,-7.600000e+01,-2.024699e+00
  112460, -3.835050e+00,-7.600000e+01,-2.141056e+00
  112461, -1.907728e+00,-7.600000e+01,-2.295649e+00
  112462, -5.521504e+00,-7.600000e+01,-3.990354e+00
  112463, -7.208559e+00,-7.600000e+01,-3.898144e+00
  112464, -3.758587e+00,-7.600000e+01,-4.291406e+00
  112465, -1.904575e+00,-7.600000e+01,-4.642807e+00
  112466, -5.539967e+00,-7.600000e+01,-5.836899e+00
  112467, -6.830325e+00,-7.600000e+01,-5.307483e+00
  112468, -3.870860e+00,-7.600000e+01,-6.487469e+00
  112469, -1.975771e+00,-7.600000e+01,-7.050566e+00
  112470, -5.713434e+00,-8.000000e+01,-2.015796e+00
  112471, -7.639033e+00,-8.000000e+01,-2.024699e+00
  112472, -3.835050e+00,-8.000000e+01,-2.141056e+00
  112473, -1.907728e+00,-8.000000e+01,-2.295649e+00
  112474, -5.521504e+00,-8.000000e+01,-3.990354e+00
  112475, -7.208559e+00,-8.000000e+01,-3.898144e+00
  112476, -3.758587e+00,-8.000000e+01,-4.291406e+00
  112477, -1.904575e+00,-8.000000e+01,-4.642807e+00
  112478, -5.539967e+00,-8.000000e+01,-5.836899e+00
  112479, -6.830325e+00,-8.000000e+01,-5.307483e+00
  112480, -3.870860e+00,-8.000000e+01,-6.487469e+00
  112481, -1.975771e+00,-8.000000e+01,-7.050566e+00
  112482, -4.000000e+01,6.666670e+00,-4.000000e+01
  112483, -3.600000e+01,6.666670e+00,-4.000000e+01
  112484, -3.200000e+01,6.666670e+00,-4.000000e+01
  112485, -2.800000e+01,6.666670e+00,-4.000000e+01
  112486, -2.400000e+01,6.666670e+00,-4.000000e+01
  112487, -2.000000e+01,6.666670e+00,-4.000000e+01
  112488, -1.600000e+01,6.666670e+00,-4.000000e+01
  112489, -1.200000e+01,6.666670e+00,-4.000000e+01
  112490, -8.000000e+00,6.666670e+00,-4.000000e+01
  112491, -4.000000e+00,6.666670e+00,-4.000000e+01
  112492, -4.000000e+01,6.666670e+00,0.000000e+00
  112493, -4.000000e+01,6.666670e+00,-4.000000e+00
  112494, -4.000000e+01,6.666670e+00,-8.000000e+00
  112495, -4.000000e+01,6.666670e+00,-1.200000e+01
  112496, -4.000000e+01,6.666670e+00,-1.600000e+01
  112497, -4.000000e+01,6.666670e+00,-2.000000e+01
  112498, -4.000000e+01,6.666670e+00,-2.400000e+01
  112499, -4.000000e+01,6.666670e+00,-2.800000e+01
  112500, -4.000000e+01,6.666670e+00,-3.200000e+01
  112501, -4.000000e+01,6.666670e+00,-3.600000e+01
  112502, -1.900000e+01,6.666670e+00,-1.918613e-15
  112503, -2.320000e+01,6.666670e+00,0.000000e+00
  112504, -2.740000e+01,6.666670e+00,0.000000e+00
  112505, -3.160000e+01,6.666670e+00,0.000000e+00
  112506, -3.580000e+01,6.666670e+00,0.000000e+00
  112507, -1.863492e+01,6.666670e+00,-3.706716e+00
  112508, -1.755371e+01,6.666670e+00,-7.270985e+00
  112509, -1.579792e+01,6.666670e+00,-1.055583e+01
  112510, -1.343503e+01,6.666670e+00,-1.343503e+01
  112511, -1.055583e+01,6.666670e+00,-1.579792e+01
  112512, -7.270985e+00,6.666670e+00,-1.755371e+01
  112513, -3.706716e+00,6.666670e+00,-1.863492e+01
  112514, -2.257555e+01,6.666670e+00,-4.211469e+00
  112515, -2.150619e+01,6.666670e+00,-8.429694e+00
  112516, -1.966699e+01,6.666670e+00,-1.250808e+01
  112517, -1.736769e+01,6.666670e+00,-1.735013e+01
  112518, -1.253648e+01,6.666670e+00,-1.967765e+01
  112519, -8.400432e+00,6.666670e+00,-2.152421e+01
  112520, -4.192631e+00,6.666670e+00,-2.257454e+01
  112521, -4.089336e+00,6.666670e+00,-3.571287e+01
  112522, -8.121959e+00,6.666670e+00,-3.576349e+01
  112523, -1.202316e+01,6.666670e+00,-3.591118e+01
  112524, -1.590341e+01,6.666670e+00,-3.587190e+01
  112525, -1.983594e+01,6.666670e+00,-3.578244e+01
  112526, -2.382022e+01,6.666670e+00,-3.576572e+01
  112527, -2.784548e+01,6.666670e+00,-3.581234e+01
  112528, -3.188812e+01,6.666670e+00,-3.587650e+01
  112529, -3.594229e+01,6.666670e+00,-3.594045e+01
  112530, -3.587954e+01,6.666670e+00,-3.188480e+01
  112531, -3.581278e+01,6.666670e+00,-2.784079e+01
  112532, -3.576565e+01,6.666670e+00,-2.381703e+01
  112533, -3.578864e+01,6.666670e+00,-1.983483e+01
  112534, -3.588604e+01,6.666670e+00,-1.590930e+01
  112535, -3.589785e+01,6.666670e+00,-1.203258e+01
  112536, -3.570817e+01,6.666670e+00,-8.138059e+00
  112537, -3.571314e+01,6.666670e+00,-4.095931e+00
  112538, -4.453922e+00,6.666670e+00,-2.693883e+01
  112539, -4.223663e+00,6.666670e+00,-3.142926e+01
  112540, -3.135524e+01,6.666670e+00,-4.258768e+00
  112541, -2.692851e+01,6.666670e+00,-4.455829e+00
  112542, -3.176139e+01,6.666670e+00,-3.175641e+01
  112543, -3.161538e+01,6.666670e+00,-2.764626e+01
  112544, -3.150366e+01,6.666670e+00,-2.357209e+01
  112545, -3.163597e+01,6.666670e+00,-1.957076e+01
  112546, -3.185860e+01,6.666670e+00,-1.571482e+01
  112547, -3.190901e+01,6.666670e+00,-1.208487e+01
  112548, -3.136378e+01,6.666670e+00,-8.420905e+00
  112549, -8.396216e+00,6.666670e+00,-3.142007e+01
  112550, -1.209588e+01,6.666670e+00,-3.197541e+01
  112551, -1.573256e+01,6.666670e+00,-3.178161e+01
  112552, -1.957359e+01,6.666670e+00,-3.162741e+01
  112553, -2.357239e+01,6.666670e+00,-3.151052e+01
  112554, -2.764917e+01,6.666670e+00,-3.162314e+01
  112555, -2.642356e+01,6.666670e+00,-9.348057e+00
  112556, -9.363967e+00,6.666670e+00,-2.648574e+01
  112557, -2.423376e+01,6.666670e+00,-1.384733e+01
  112558, -2.297098e+01,6.666670e+00,-1.828765e+01
  112559, -1.386728e+01,6.666670e+00,-2.424102e+01
  112560, -1.832920e+01,6.666670e+00,-2.299211e+01
  112561, -2.293701e+01,6.666670e+00,-2.293528e+01
  112562, -2.740284e+01,6.666670e+00,-2.740135e+01
  112563, -2.732621e+01,6.666670e+00,-2.326549e+01
  112564, -2.743888e+01,6.666670e+00,-1.912003e+01
  112565, -2.804786e+01,6.666670e+00,-1.529172e+01
  112566, -2.879348e+01,6.666670e+00,-1.224155e+01
  112567, -1.224509e+01,6.666670e+00,-2.874177e+01
  112568, -1.529967e+01,6.666670e+00,-2.803412e+01
  112569, -1.912973e+01,6.666670e+00,-2.744304e+01
  112570, -2.326865e+01,6.666670e+00,-2.732803e+01
  112571, -4.000000e+01,2.000000e+01,-4.000000e+01
  112572, -4.000000e+01,1.000000e+01,-4.000000e+01
  112573, -4.000000e+01,1.333333e+01,-4.000000e+01
  112574, -4.000000e+01,1.666667e+01,-4.000000e+01
  112575, -3.600000e+01,2.000000e+01,-4.000000e+01
  112576, -3.200000e+01,2.000000e+01,-4.000000e+01
  112577, -2.800000e+01,2.000000e+01,-4.000000e+01
  112578, -2.400000e+01,2.000000e+01,-4.000000e+01
  112579, -2.000000e+01,2.000000e+01,-4.000000e+01
  112580, -1.600000e+01,2.000000e+01,-4.000000e+01
  112581, -1.200000e+01,2.000000e+01,-4.000000e+01
  112582, -8.000000e+00,2.000000e+01,-4.000000e+01
  112583, -4.000000e+00,2.000000e+01,-4.000000e+01
  112584, -4.000000e+00,1.666667e+01,-4.000000e+01
  112585, -4.000000e+00,1.333333e+01,-4.000000e+01
  112586, -4.000000e+00,1.000000e+01,-4.000000e+01
  112587, -8.000000e+00,1.666667e+01,-4.000000e+01
  112588, -8.000000e+00,1.333333e+01,-4.000000e+01
  112589, -8.000000e+00,1.000000e+01,-4.000000e+01
  112590, -1.200000e+01,1.666667e+01,-4.000000e+01
  112591, -1.200000e+01,1.333333e+01,-4.000000e+01
  112592, -1.200000e+01,1.000000e+01,-4.000000e+01
  112593, -1.600000e+01,1.666667e+01,-4.000000e+01
  112594, -1.600000e+01,1.333333e+01,-4.000000e+01
  112595, -1.600000e+01,1.000000e+01,-4.000000e+01
  112596, -2.000000e+01,1.666667e+01,-4.000000e+01
  112597, -2.000000e+01,1.333333e+01,-4.000000e+01
  112598, -2.000000e+01,1.000000e+01,-4.000000e+01
  112599, -2.400000e+01,1.666667e+01,-4.000000e+01
  112600, -2.400000e+01,1.333333e+01,-4.000000e+01
  112601, -2.400000e+01,1.000000e+01,-4.000000e+01
  112602, -2.800000e+01,1.666667e+01,-4.000000e+01
  112603, -2.800000e+01,1.333333e+01,-4.000000e+01
  112604, -2.800000e+01,1.000000e+01,-4.000000e+01
  112605, -3.200000e+01,1.666667e+01,-4.000000e+01
  112606, -3.200000e+01,1.333333e+01,-4.000000e+01
  112607, -3.200000e+01,1.000000e+01,-4.000000e+01
  112608, -3.600000e+01,1.666667e+01,-4.000000e+01
  112609, -3.600000e+01,1.333333e+01,-4.000000e+01
  112610, -3.600000e+01,1.000000e+01,-4.000000e+01
  112611, -1.900000e+01,2.000000e+01,-1.102182e-15
  112612, -1.900000e+01,1.000000e+01,-2.041077e-16
  112613, -1.900000e+01,1.333333e+01,0.000000e+00
  112614, -1.900000e+01,1.666667e+01,2.041077e-16
  112615, -4.000000e+01,2.000000e+01,0.000000e+00
  112616, -2.320000e+01,2.000000e+01,0.000000e+00
  112617, -2.740000e+01,2.000000e+01,0.000000e+00
  112618, -3.160000e+01,2.000000e+01,0.000000e+00
  112619, -3.580000e+01,2.000000e+01,0.000000e+00
  112620, -4.000000e+01,1.666667e+01,0.000000e+00
  112621, -4.000000e+01,1.333333e+01,0.000000e+00
  112622, -4.000000e+01,1.000000e+01,0.000000e+00
  112623, -2.320000e+01,1.000000e+01,0.000000e+00
  112624, -2.320000e+01,1.333334e+01,0.000000e+00
  112625, -2.320000e+01,1.666667e+01,0.000000e+00
  112626, -2.740000e+01,1.000000e+01,0.000000e+00
  112627, -2.740000e+01,1.333333e+01,0.000000e+00
  112628, -2.740000e+01,1.666667e+01,0.000000e+00
  112629, -3.160000e+01,1.000000e+01,0.000000e+00
  112630, -3.160000e+01,1.333333e+01,0.000000e+00
  112631, -3.160000e+01,1.666667e+01,0.000000e+00
  112632, -3.580000e+01,1.000000e+01,0.000000e+00
  112633, -3.580000e+01,1.333333e+01,0.000000e+00
  112634, -3.580000e+01,1.666667e+01,0.000000e+00
  112635, -1.863492e+01,2.000000e+01,-3.706716e+00
  112636, -1.755371e+01,2.000000e+01,-7.270985e+00
  112637, -1.579792e+01,2.000000e+01,-1.055583e+01
  112638, -1.343503e+01,2.000000e+01,-1.343503e+01
  112639, -1.055583e+01,2.000000e+01,-1.579792e+01
  112640, -7.270985e+00,2.000000e+01,-1.755371e+01
  112641, -3.706716e+00,2.000000e+01,-1.863492e+01
  112642, -3.706716e+00,1.000000e+01,-1.863492e+01
  112643, -3.706716e+00,1.333333e+01,-1.863492e+01
  112644, -3.706716e+00,1.666667e+01,-1.863492e+01
  112645, -7.270985e+00,1.000000e+01,-1.755371e+01
  112646, -7.270985e+00,1.333334e+01,-1.755371e+01
  112647, -7.270985e+00,1.666667e+01,-1.755371e+01
  112648, -1.055583e+01,1.000000e+01,-1.579792e+01
  112649, -1.055583e+01,1.333334e+01,-1.579792e+01
  112650, -1.055583e+01,1.666667e+01,-1.579792e+01
  112651, -1.343503e+01,1.000000e+01,-1.343503e+01
  112652, -1.343503e+01,1.333334e+01,-1.343503e+01
  112653, -1.343503e+01,1.666667e+01,-1.343503e+01
  112654, -1.579792e+01,1.000000e+01,-1.055583e+01
  112655, -1.579792e+01,1.333334e+01,-1.055583e+01
  112656, -1.579792e+01,1.666667e+01,-1.055583e+01
  112657, -1.755371e+01,1.000000e+01,-7.270985e+00
  112658, -1.755371e+01,1.333333e+01,-7.270985e+00
  112659, -1.755371e+01,1.666667e+01,-7.270985e+00
  112660, -1.863492e+01,1.000000e+01,-3.706716e+00
  112661, -1.863492e+01,1.333333e+01,-3.706716e+00
  112662, -1.863492e+01,1.666667e+01,-3.706716e+00
  112663, -4.000000e+01,2.000000e+01,-4.000000e+00
  112664, -4.000000e+01,2.000000e+01,-8.000000e+00
  112665, -4.000000e+01,2.000000e+01,-1.200000e+01
  112666, -4.000000e+01,2.000000e+01,-1.600000e+01
  112667, -4.000000e+01,2.000000e+01,-2.000000e+01
  112668, -4.000000e+01,2.000000e+01,-2.400000e+01
  112669, -4.000000e+01,2.000000e+01,-2.800000e+01
  112670, -4.000000e+01,2.000000e+01,-3.200000e+01
  112671, -4.000000e+01,2.000000e+01,-3.600000e+01
  112672, -4.000000e+01,1.000000e+01,-4.000000e+00
  112673, -4.000000e+01,1.333333e+01,-4.000000e+00
  112674, -4.000000e+01,1.666667e+01,-4.000000e+00
  112675, -4.000000e+01,1.000000e+01,-8.000000e+00
  112676, -4.000000e+01,1.333333e+01,-8.000000e+00
  112677, -4.000000e+01,1.666667e+01,-8.000000e+00
  112678, -4.000000e+01,1.000000e+01,-1.200000e+01
  112679, -4.000000e+01,1.333333e+01,-1.200000e+01
  112680, -4.000000e+01,1.666667e+01,-1.200000e+01
  112681, -4.000000e+01,1.000000e+01,-1.600000e+01
  112682, -4.000000e+01,1.333333e+01,-1.600000e+01
  112683, -4.000000e+01,1.666667e+01,-1.600000e+01
  112684, -4.000000e+01,1.000000e+01,-2.000000e+01
  112685, -4.000000e+01,1.333333e+01,-2.000000e+01
  112686, -4.000000e+01,1.666667e+01,-2.000000e+01
  112687, -4.000000e+01,1.000000e+01,-2.400000e+01
  112688, -4.000000e+01,1.333333e+01,-2.400000e+01
  112689, -4.000000e+01,1.666667e+01,-2.400000e+01
  112690, -4.000000e+01,1.000000e+01,-2.800000e+01
  112691, -4.000000e+01,1.333333e+01,-2.800000e+01
  112692, -4.000000e+01,1.666667e+01,-2.800000e+01
  112693, -4.000000e+01,1.000000e+01,-3.200000e+01
  112694, -4.000000e+01,1.333333e+01,-3.200000e+01
  112695, -4.000000e+01,1.666667e+01,-3.200000e+01
  112696, -4.000000e+01,1.000000e+01,-3.600000e+01
  112697, -4.000000e+01,1.333333e+01,-3.600000e+01
  112698, -4.000000e+01,1.666667e+01,-3.600000e+01
  112699, -2.257555e+01,1.000000e+01,-4.211469e+00
  112700, -2.150619e+01,1.000000e+01,-8.429694e+00
  112701, -1.966699e+01,1.000000e+01,-1.250808e+01
  112702, -1.736769e+01,1.000000e+01,-1.735013e+01
  112703, -1.253648e+01,1.000000e+01,-1.967765e+01
  112704, -8.400432e+00,1.000000e+01,-2.152421e+01
  112705, -4.192631e+00,1.000000e+01,-2.257454e+01
  112706, -4.089336e+00,1.000000e+01,-3.571287e+01
  112707, -8.121959e+00,1.000000e+01,-3.576349e+01
  112708, -1.202316e+01,1.000000e+01,-3.591118e+01
  112709, -1.590341e+01,1.000000e+01,-3.587190e+01
  112710, -1.983594e+01,1.000000e+01,-3.578244e+01
  112711, -2.382022e+01,1.000000e+01,-3.576572e+01
  112712, -2.784548e+01,1.000000e+01,-3.581234e+01
  112713, -3.188812e+01,1.000000e+01,-3.587650e+01
  112714, -3.594229e+01,1.000000e+01,-3.594045e+01
  112715, -3.587954e+01,1.000000e+01,-3.188480e+01
  112716, -3.581278e+01,1.000000e+01,-2.784079e+01
  112717, -3.576565e+01,1.000000e+01,-2.381703e+01
  112718, -3.578864e+01,1.000000e+01,-1.983483e+01
  112719, -3.588604e+01,1.000000e+01,-1.590930e+01
  112720, -3.589785e+01,1.000000e+01,-1.203258e+01
  112721, -3.570817e+01,1.000000e+01,-8.138059e+00
  112722, -3.571314e+01,1.000000e+01,-4.095931e+00
  112723, -4.453922e+00,1.000000e+01,-2.693883e+01
  112724, -4.223663e+00,1.000000e+01,-3.142926e+01
  112725, -3.135524e+01,1.000000e+01,-4.258768e+00
  112726, -2.692851e+01,1.000000e+01,-4.455829e+00
  112727, -3.176139e+01,1.000000e+01,-3.175641e+01
  112728, -3.161538e+01,1.000000e+01,-2.764626e+01
  112729, -3.150366e+01,1.000000e+01,-2.357209e+01
  112730, -3.163597e+01,1.000000e+01,-1.957076e+01
  112731, -3.185860e+01,1.000000e+01,-1.571482e+01
  112732, -3.190901e+01,1.000000e+01,-1.208487e+01
  112733, -3.136378e+01,1.000000e+01,-8.420905e+00
  112734, -8.396216e+00,1.000000e+01,-3.142007e+01
  112735, -1.209588e+01,1.000000e+01,-3.197541e+01
  112736, -1.573256e+01,1.000000e+01,-3.178161e+01
  112737, -1.957359e+01,1.000000e+01,-3.162741e+01
  112738, -2.357239e+01,1.000000e+01,-3.151052e+01
  112739, -2.764917e+01,1.000000e+01,-3.162314e+01
  112740, -2.642356e+01,1.000000e+01,-9.348057e+00
  112741, -9.363967e+00,1.000000e+01,-2.648574e+01
  112742, -2.423376e+01,1.000000e+01,-1.384733e+01
  112743, -2.297098e+01,1.000000e+01,-1.828765e+01
  112744, -1.386728e+01,1.000000e+01,-2.424102e+01
  112745, -1.832920e+01,1.000000e+01,-2.299211e+01
  112746, -2.293701e+01,1.000000e+01,-2.293528e+01
  112747, -2.740284e+01,1.000000e+01,-2.740135e+01
  112748, -2.732621e+01,1.000000e+01,-2.326549e+01
  112749, -2.743888e+01,1.000000e+01,-1.912003e+01
  112750, -2.804786e+01,1.000000e+01,-1.529172e+01
  112751, -2.879348e+01,1.000000e+01,-1.224155e+01
  112752, -1.224509e+01,1.000000e+01,-2.874177e+01
  112753, -1.529967e+01,1.000000e+01,-2.803412e+01
  112754, -1.912973e+01,1.000000e+01,-2.744304e+01
  112755, -2.326865e+01,1.000000e+01,-2.732803e+01
  112756, -2.257555e+01,1.333333e+01,-4.211469e+00
  112757, -2.150619e+01,1.333333e+01,-8.429694e+00
  112758, -1.966699e+01,1.333333e+01,-1.250808e+01
  112759, -1.736769e+01,1.333333e+01,-1.735013e+01
  112760, -1.253648e+01,1.333333e+01,-1.967765e+01
  112761, -8.400432e+00,1.333333e+01,-2.152421e+01
  112762, -4.192631e+00,1.333333e+01,-2.257454e+01
  112763, -4.089336e+00,1.333333e+01,-3.571287e+01
  112764, -8.121959e+00,1.333333e+01,-3.576349e+01
  112765, -1.202316e+01,1.333333e+01,-3.591118e+01
  112766, -1.590341e+01,1.333333e+01,-3.587190e+01
  112767, -1.983594e+01,1.333333e+01,-3.578244e+01
  112768, -2.382022e+01,1.333333e+01,-3.576572e+01
  112769, -2.784548e+01,1.333333e+01,-3.581234e+01
  112770, -3.188812e+01,1.333333e+01,-3.587650e+01
  112771, -3.594229e+01,1.333333e+01,-3.594045e+01
  112772, -3.587954e+01,1.333333e+01,-3.188480e+01
  112773, -3.581278e+01,1.333333e+01,-2.784079e+01
  112774, -3.576565e+01,1.333333e+01,-2.381703e+01
  112775, -3.578864e+01,1.333333e+01,-1.983483e+01
  112776, -3.588604e+01,1.333333e+01,-1.590930e+01
  112777, -3.589785e+01,1.333333e+01,-1.203258e+01
  112778, -3.570817e+01,1.333333e+01,-8.138059e+00
  112779, -3.571314e+01,1.333333e+01,-4.095931e+00
  112780, -4.453922e+00,1.333333e+01,-2.693883e+01
  112781, -4.223663e+00,1.333333e+01,-3.142926e+01
  112782, -3.135524e+01,1.333333e+01,-4.258768e+00
  112783, -2.692851e+01,1.333333e+01,-4.455829e+00
  112784, -3.176139e+01,1.333333e+01,-3.175641e+01
  112785, -3.161538e+01,1.333333e+01,-2.764626e+01
  112786, -3.150366e+01,1.333333e+01,-2.357209e+01
  112787, -3.163597e+01,1.333333e+01,-1.957076e+01
  112788, -3.185860e+01,1.333333e+01,-1.571482e+01
  112789, -3.190901e+01,1.333333e+01,-1.208487e+01
  112790, -3.136378e+01,1.333333e+01,-8.420905e+00
  112791, -8.396216e+00,1.333333e+01,-3.142007e+01
  112792, -1.209588e+01,1.333333e+01,-3.197541e+01
  112793, -1.573256e+01,1.333333e+01,-3.178161e+01
  112794, -1.957359e+01,1.333333e+01,-3.162741e+01
  112795, -2.357239e+01,1.333333e+01,-3.151052e+01
  112796, -2.764917e+01,1.333333e+01,-3.162314e+01
  112797, -2.642356e+01,1.333333e+01,-9.348057e+00
  112798, -9.363967e+00,1.333333e+01,-2.648574e+01
  112799, -2.423376e+01,1.333333e+01,-1.384733e+01
  112800, -2.297098e+01,1.333333e+01,-1.828765e+01
  112801, -1.386728e+01,1.333333e+01,-2.424102e+01
  112802, -1.832920e+01,1.333333e+01,-2.299211e+01
  112803, -2.293701e+01,1.333333e+01,-2.293528e+01
  112804, -2.740284e+01,1.333333e+01,-2.740135e+01
  112805, -2.732621e+01,1.333333e+01,-2.326549e+01
  112806, -2.743888e+01,1.333333e+01,-1.912003e+01
  112807, -2.804786e+01,1.333333e+01,-1.529172e+01
  112808, -2.879348e+01,1.333333e+01,-1.224155e+01
  112809, -1.224509e+01,1.333333e+01,-2.874177e+01
  112810, -1.529967e+01,1.333333e+01,-2.803412e+01
  112811, -1.912973e+01,1.333333e+01,-2.744304e+01
  112812, -2.326865e+01,1.333333e+01,-2.732803e+01
  112813, -2.257555e+01,1.666667e+01,-4.211469e+00
  112814, -2.150619e+01,1.666667e+01,-8.429694e+00
  112815, -1.966699e+01,1.666667e+01,-1.250808e+01
  112816, -1.736769e+01,1.666667e+01,-1.735013e+01
  112817, -1.253648e+01,1.666667e+01,-1.967765e+01
  112818, -8.400432e+00,1.666667e+01,-2.152421e+01
  112819, -4.192631e+00,1.666667e+01,-2.257454e+01
  112820, -4.089336e+00,1.666667e+01,-3.571287e+01
  112821, -8.121959e+00,1.666667e+01,-3.576349e+01
  112822, -1.202316e+01,1.666667e+01,-3.591118e+01
  112823, -1.590341e+01,1.666667e+01,-3.587190e+01
  112824, -1.983594e+01,1.666667e+01,-3.578244e+01
  112825, -2.382022e+01,1.666667e+01,-3.576572e+01
  112826, -2.784548e+01,1.666667e+01,-3.581234e+01
  112827, -3.188812e+01,1.666667e+01,-3.587650e+01
  112828, -3.594229e+01,1.666667e+01,-3.594045e+01
  112829, -3.587954e+01,1.666667e+01,-3.188480e+01
  112830, -3.581278e+01,1.666667e+01,-2.784079e+01
  112831, -3.576565e+01,1.666667e+01,-2.381703e+01
  112832, -3.578864e+01,1.666667e+01,-1.983483e+01
  112833, -3.588604e+01,1.666667e+01,-1.590930e+01
  112834, -3.589785e+01,1.666667e+01,-1.203258e+01
  112835, -3.570817e+01,1.666667e+01,-8.138059e+00
  112836, -3.571314e+01,1.666667e+01,-4.095931e+00
  112837, -4.453922e+00,1.666667e+01,-2.693883e+01
  112838, -4.223663e+00,1.666667e+01,-3.142926e+01
  112839, -3.135524e+01,1.666667e+01,-4.258768e+00
  112840, -2.692851e+01,1.666667e+01,-4.455829e+00
  112841, -3.176139e+01,1.666667e+01,-3.175641e+01
  112842, -3.161538e+01,1.666667e+01,-2.764626e+01
  112843, -3.150366e+01,1.666667e+01,-2.357209e+01
  112844, -3.163597e+01,1.666667e+01,-1.957076e+01
  112845, -3.185860e+01,1.666667e+01,-1.571482e+01
  112846, -3.190901e+01,1.666667e+01,-1.208487e+01
  112847, -3.136378e+01,1.666667e+01,-8.420905e+00
  112848, -8.396216e+00,1.666667e+01,-3.142007e+01
  112849, -1.209588e+01,1.666667e+01,-3.197541e+01
  112850, -1.573256e+01,1.666667e+01,-3.178161e+01
  112851, -1.957359e+01,1.666667e+01,-3.162741e+01
  112852, -2.357239e+01,1.666667e+01,-3.151052e+01
  112853, -2.764917e+01,1.666667e+01,-3.162314e+01
  112854, -2.642356e+01,1.666667e+01,-9.348057e+00
  112855, -9.363967e+00,1.666667e+01,-2.648574e+01
  112856, -2.423376e+01,1.666667e+01,-1.384733e+01
  112857, -2.297098e+01,1.666667e+01,-1.828765e+01
  112858, -1.386728e+01,1.666667e+01,-2.424102e+01
  112859, -1.832920e+01,1.666667e+01,-2.299211e+01
  112860, -2.293701e+01,1.666667e+01,-2.293528e+01
  112861, -2.740284e+01,1.666667e+01,-2.740135e+01
  112862, -2.732621e+01,1.666667e+01,-2.326549e+01
  112863, -2.743888e+01,1.666667e+01,-1.912003e+01
  112864, -2.804786e+01,1.666667e+01,-1.529172e+01
  112865, -2.879348e+01,1.666667e+01,-1.224155e+01
  112866, -1.224509e+01,1.666667e+01,-2.874177e+01
  112867, -1.529967e+01,1.666667e+01,-2.803412e+01
  112868, -1.912973e+01,1.666667e+01,-2.744304e+01
  112869, -2.326865e+01,1.666667e+01,-2.732803e+01
  112870, -2.257555e+01,2.000000e+01,-4.211469e+00
  112871, -2.150619e+01,2.000000e+01,-8.429694e+00
  112872, -1.966699e+01,2.000000e+01,-1.250808e+01
  112873, -1.736769e+01,2.000000e+01,-1.735013e+01
  112874, -1.253648e+01,2.000000e+01,-1.967765e+01
  112875, -8.400432e+00,2.000000e+01,-2.152421e+01
  112876, -4.192631e+00,2.000000e+01,-2.257454e+01
  112877, -4.089336e+00,2.000000e+01,-3.571287e+01
  112878, -8.121959e+00,2.000000e+01,-3.576349e+01
  112879, -1.202316e+01,2.000000e+01,-3.591118e+01
  112880, -1.590341e+01,2.000000e+01,-3.587190e+01
  112881, -1.983594e+01,2.000000e+01,-3.578244e+01
  112882, -2.382022e+01,2.000000e+01,-3.576572e+01
  112883, -2.784548e+01,2.000000e+01,-3.581234e+01
  112884, -3.188812e+01,2.000000e+01,-3.587650e+01
  112885, -3.594229e+01,2.000000e+01,-3.594045e+01
  112886, -3.587954e+01,2.000000e+01,-3.188480e+01
  112887, -3.581278e+01,2.000000e+01,-2.784079e+01
  112888, -3.576565e+01,2.000000e+01,-2.381703e+01
  112889, -3.578864e+01,2.000000e+01,-1.983483e+01
  112890, -3.588604e+01,2.000000e+01,-1.590930e+01
  112891, -3.589785e+01,2.000000e+01,-1.203258e+01
  112892, -3.570817e+01,2.000000e+01,-8.138059e+00
  112893, -3.571314e+01,2.000000e+01,-4.095931e+00
  112894, -4.453922e+00,2.000000e+01,-2.693883e+01
  112895, -4.223663e+00,2.000000e+01,-3.142926e+01
  112896, -3.135524e+01,2.000000e+01,-4.258768e+00
  112897, -2.692851e+01,2.000000e+01,-4.455829e+00
  112898, -3.176139e+01,2.000000e+01,-3.175641e+01
  112899, -3.161538e+01,2.000000e+01,-2.764626e+01
  112900, -3.150366e+01,2.000000e+01,-2.357209e+01
  112901, -3.163597e+01,2.000000e+01,-1.957076e+01
  112902, -3.185860e+01,2.000000e+01,-1.571482e+01
  112903, -3.190901e+01,2.000000e+01,-1.208487e+01
  112904, -3.136378e+01,2.000000e+01,-8.420905e+00
  112905, -8.396216e+00,2.000000e+01,-3.142007e+01
  112906, -1.209588e+01,2.000000e+01,-3.197541e+01
  112907, -1.573256e+01,2.000000e+01,-3.178161e+01
  112908, -1.957359e+01,2.000000e+01,-3.162741e+01
  112909, -2.357239e+01,2.000000e+01,-3.151052e+01
  112910, -2.764917e+01,2.000000e+01,-3.162314e+01
  112911, -2.642356e+01,2.000000e+01,-9.348057e+00
  112912, -9.363967e+00,2.000000e+01,-2.648574e+01
  112913, -2.423376e+01,2.000000e+01,-1.384733e+01
  112914, -2.297098e+01,2.000000e+01,-1.828765e+01
  112915, -1.386728e+01,2.000000e+01,-2.424102e+01
  112916, -1.832920e+01,2.000000e+01,-2.299211e+01
  112917, -2.293701e+01,2.000000e+01,-2.293528e+01
  112918, -2.740284e+01,2.000000e+01,-2.740135e+01
  112919, -2.732621e+01,2.000000e+01,-2.326549e+01
  112920, -2.743888e+01,2.000000e+01,-1.912003e+01
  112921, -2.804786e+01,2.000000e+01,-1.529172e+01
  112922, -2.879348e+01,2.000000e+01,-1.224155e+01
  112923, -1.224509e+01,2.000000e+01,-2.874177e+01
  112924, -1.529967e+01,2.000000e+01,-2.803412e+01
  112925, -1.912973e+01,2.000000e+01,-2.744304e+01
  112926, -2.326865e+01,2.000000e+01,-2.732803e+01
  112927, -4.000000e+01,0.000000e+00,-4.000000e+01
  112928, -4.000000e+00,0.000000e+00,-4.000000e+01
  112929, -8.000000e+00,0.000000e+00,-4.000000e+01
  112930, -1.200000e+01,0.000000e+00,-4.000000e+01
  112931, -1.600000e+01,0.000000e+00,-4.000000e+01
  112932, -2.000000e+01,0.000000e+00,-4.000000e+01
  112933, -2.400000e+01,0.000000e+00,-4.000000e+01
  112934, -2.800000e+01,0.000000e+00,-4.000000e+01
  112935, -3.200000e+01,0.000000e+00,-4.000000e+01
  112936, -3.600000e+01,0.000000e+00,-4.000000e+01
  112937, -4.000000e+01,3.333335e+00,-4.000000e+01
  112938, -4.000000e+00,3.333335e+00,-4.000000e+01
  112939, -8.000000e+00,3.333335e+00,-4.000000e+01
  112940, -1.200000e+01,3.333335e+00,-4.000000e+01
  112941, -1.600000e+01,3.333335e+00,-4.000000e+01
  112942, -2.000000e+01,3.333335e+00,-4.000000e+01
  112943, -2.400000e+01,3.333335e+00,-4.000000e+01
  112944, -2.800000e+01,3.333335e+00,-4.000000e+01
  112945, -3.200000e+01,3.333335e+00,-4.000000e+01
  112946, -3.600000e+01,3.333335e+00,-4.000000e+01
  112947, -1.900000e+01,0.000000e+00,2.326829e-15
  112948, -1.900000e+01,3.333335e+00,2.041079e-16
  112949, -4.000000e+01,0.000000e+00,0.000000e+00
  112950, -4.000000e+01,3.333335e+00,0.000000e+00
  112951, -3.580000e+01,0.000000e+00,0.000000e+00
  112952, -3.160000e+01,0.000000e+00,0.000000e+00
  112953, -2.740000e+01,0.000000e+00,0.000000e+00
  112954, -2.320000e+01,0.000000e+00,0.000000e+00
  112955, -2.320000e+01,3.333335e+00,0.000000e+00
  112956, -2.740000e+01,3.333335e+00,0.000000e+00
  112957, -3.160000e+01,3.333335e+00,0.000000e+00
  112958, -3.580000e+01,3.333335e+00,0.000000e+00
  112959, -3.706716e+00,0.000000e+00,-1.863492e+01
  112960, -7.270985e+00,0.000000e+00,-1.755371e+01
  112961, -1.055583e+01,0.000000e+00,-1.579792e+01
  112962, -1.343503e+01,0.000000e+00,-1.343503e+01
  112963, -1.579792e+01,0.000000e+00,-1.055583e+01
  112964, -1.755371e+01,0.000000e+00,-7.270985e+00
  112965, -1.863492e+01,0.000000e+00,-3.706716e+00
  112966, -3.706716e+00,3.333335e+00,-1.863492e+01
  112967, -7.270985e+00,3.333335e+00,-1.755371e+01
  112968, -1.055583e+01,3.333335e+00,-1.579792e+01
  112969, -1.343503e+01,3.333335e+00,-1.343503e+01
  112970, -1.579792e+01,3.333335e+00,-1.055583e+01
  112971, -1.755371e+01,3.333335e+00,-7.270985e+00
  112972, -1.863492e+01,3.333335e+00,-3.706716e+00
  112973, -4.000000e+01,0.000000e+00,-4.000000e+00
  112974, -4.000000e+01,0.000000e+00,-8.000000e+00
  112975, -4.000000e+01,0.000000e+00,-1.200000e+01
  112976, -4.000000e+01,0.000000e+00,-1.600000e+01
  112977, -4.000000e+01,0.000000e+00,-2.000000e+01
  112978, -4.000000e+01,0.000000e+00,-2.400000e+01
  112979, -4.000000e+01,0.000000e+00,-2.800000e+01
  112980, -4.000000e+01,0.000000e+00,-3.200000e+01
  112981, -4.000000e+01,0.000000e+00,-3.600000e+01
  112982, -4.000000e+01,3.333335e+00,-4.000000e+00
  112983, -4.000000e+01,3.333335e+00,-8.000000e+00
  112984, -4.000000e+01,3.333335e+00,-1.200000e+01
  112985, -4.000000e+01,3.333335e+00,-1.600000e+01
  112986, -4.000000e+01,3.333335e+00,-2.000000e+01
  112987, -4.000000e+01,3.333335e+00,-2.400000e+01
  112988, -4.000000e+01,3.333335e+00,-2.800000e+01
  112989, -4.000000e+01,3.333335e+00,-3.200000e+01
  112990, -4.000000e+01,3.333335e+00,-3.600000e+01
  112991, -2.257555e+01,3.333335e+00,-4.211469e+00
  112992, -2.150619e+01,3.333335e+00,-8.429694e+00
  112993, -1.966699e+01,3.333335e+00,-1.250808e+01
  112994, -1.736769e+01,3.333335e+00,-1.735013e+01
  112995, -1.253648e+01,3.333335e+00,-1.967765e+01
  112996, -8.400432e+00,3.333335e+00,-2.152421e+01
  112997, -4.192631e+00,3.333335e+00,-2.257454e+01
  112998, -4.089336e+00,3.333335e+00,-3.571287e+01
  112999, -8.121959e+00,3.333335e+00,-3.576349e+01
  113000, -1.202316e+01,3.333335e+00,-3.591118e+01
  113001, -1.590341e+01,3.333335e+00,-3.587190e+01
  113002, -1.983594e+01,3.333335e+00,-3.578244e+01
  113003, -2.382022e+01,3.333335e+00,-3.576572e+01
  113004, -2.784548e+01,3.333335e+00,-3.581234e+01
  113005, -3.188812e+01,3.333335e+00,-3.587650e+01
  113006, -3.594229e+01,3.333335e+00,-3.594045e+01
  113007, -3.587954e+01,3.333335e+00,-3.188480e+01
  113008, -3.581278e+01,3.333335e+00,-2.784079e+01
  113009, -3.576565e+01,3.333335e+00,-2.381703e+01
  113010, -3.578864e+01,3.333335e+00,-1.983483e+01
  113011, -3.588604e+01,3.333335e+00,-1.590930e+01
  113012, -3.589785e+01,3.333335e+00,-1.203258e+01
  113013, -3.570817e+01,3.333335e+00,-8.138059e+00
  113014, -3.571314e+01,3.333335e+00,-4.095931e+00
  113015, -4.453922e+00,3.333335e+00,-2.693883e+01
  113016, -4.223663e+00,3.333335e+00,-3.142926e+01
  113017, -3.135524e+01,3.333335e+00,-4.258768e+00
  113018, -2.692851e+01,3.333335e+00,-4.455829e+00
  113019, -3.176139e+01,3.333335e+00,-3.175641e+01
  113020, -3.161538e+01,3.333335e+00,-2.764626e+01
  113021, -3.150366e+01,3.333335e+00,-2.357209e+01
  113022, -3.163597e+01,3.333335e+00,-1.957076e+01
  113023, -3.185860e+01,3.333335e+00,-1.571482e+01
  113024, -3.190901e+01,3.333335e+00,-1.208487e+01
  113025, -3.136378e+01,3.333335e+00,-8.420905e+00
  113026, -8.396216e+00,3.333335e+00,-3.142007e+01
  113027, -1.209588e+01,3.333335e+00,-3.197541e+01
  113028, -1.573256e+01,3.333335e+00,-3.178161e+01
  113029, -1.957359e+01,3.333335e+00,-3.162741e+01
  113030, -2.357239e+01,3.333335e+00,-3.151052e+01
  113031, -2.764917e+01,3.333335e+00,-3.162314e+01
  113032, -2.642356e+01,3.333335e+00,-9.348057e+00
  113033, -9.363967e+00,3.333335e+00,-2.648574e+01
  113034, -2.423376e+01,3.333335e+00,-1.384733e+01
  113035, -2.297098e+01,3.333335e+00,-1.828765e+01
  113036, -1.386728e+01,3.333335e+00,-2.424102e+01
  113037, -1.832920e+01,3.333335e+00,-2.299211e+01
  113038, -2.293701e+01,3.333335e+00,-2.293528e+01
  113039, -2.740284e+01,3.333335e+00,-2.740135e+01
  113040, -2.732621e+01,3.333335e+00,-2.326549e+01
  113041, -2.743888e+01,3.333335e+00,-1.912003e+01
  113042, -2.804786e+01,3.333335e+00,-1.529172e+01
  113043, -2.879348e+01,3.333335e+00,-1.224155e+01
  113044, -1.224509e+01,3.333335e+00,-2.874177e+01
  113045, -1.529967e+01,3.333335e+00,-2.803412e+01
  113046, -1.912973e+01,3.333335e+00,-2.744304e+01
  113047, -2.326865e+01,3.333335e+00,-2.732803e+01
  113048, -2.257555e+01,0.000000e+00,-4.211469e+00
  113049, -2.150619e+01,0.000000e+00,-8.429694e+00
  113050, -1.966699e+01,0.000000e+00,-1.250808e+01
  113051, -1.736769e+01,0.000000e+00,-1.735013e+01
  113052, -1.253648e+01,0.000000e+00,-1.967765e+01
  113053, -8.400432e+00,0.000000e+00,-2.152421e+01
  113054, -4.192631e+00,0.000000e+00,-2.257454e+01
  113055, -4.089336e+00,0.000000e+00,-3.571287e+01
  113056, -8.121959e+00,0.000000e+00,-3.576349e+01
  113057, -1.202316e+01,0.000000e+00,-3.591118e+01
  113058, -1.590341e+01,0.000000e+00,-3.587190e+01
  113059, -1.983594e+01,0.000000e+00,-3.578244e+01
  113060, -2.382022e+01,0.000000e+00,-3.576572e+01
  113061, -2.784548e+01,0.000000e+00,-3.581234e+01
  113062, -3.188812e+01,0.000000e+00,-3.587650e+01
  113063, -3.594229e+01,0.000000e+00,-3.594045e+01
  113064, -3.587954e+01,0.000000e+00,-3.188480e+01
  113065, -3.581278e+01,0.000000e+00,-2.784079e+01
  113066, -3.576565e+01,0.000000e+00,-2.381703e+01
  113067, -3.578864e+01,0.000000e+00,-1.983483e+01
  113068, -3.588604e+01,0.000000e+00,-1.590930e+01
  113069, -3.589785e+01,0.000000e+00,-1.203258e+01
  113070, -3.570817e+01,0.000000e+00,-8.138059e+00
  113071, -3.571314e+01,0.000000e+00,-4.095931e+00
  113072, -4.453922e+00,0.000000e+00,-2.693883e+01
  113073, -4.223663e+00,0.000000e+00,-3.142926e+01
  113074, -3.135524e+01,0.000000e+00,-4.258768e+00
  113075, -2.692851e+01,0.000000e+00,-4.455829e+00
  113076, -3.176139e+01,0.000000e+00,-3.175641e+01
  113077, -3.161538e+01,0.000000e+00,-2.764626e+01
  113078, -3.150366e+01,0.000000e+00,-2.357209e+01
  113079, -3.163597e+01,0.000000e+00,-1.957076e+01
  113080, -3.185860e+01,0.000000e+00,-1.571482e+01
  113081, -3.190901e+01,0.000000e+00,-1.208487e+01
  113082, -3.136378e+01,0.000000e+00,-8.420905e+00
  113083, -8.396216e+00,0.000000e+00,-3.142007e+01
  113084, -1.209588e+01,0.000000e+00,-3.197541e+01
  113085, -1.573256e+01,0.000000e+00,-3.178161e+01
  113086, -1.957359e+01,0.000000e+00,-3.162741e+01
  113087, -2.357239e+01,0.000000e+00,-3.151052e+01
  113088, -2.764917e+01,0.000000e+00,-3.162314e+01
  113089, -2.642356e+01,0.000000e+00,-9.348057e+00
  113090, -9.363967e+00,0.000000e+00,-2.648574e+01
  113091, -2.423376e+01,0.000000e+00,-1.384733e+01
  113092, -2.297098e+01,0.000000e+00,-1.828765e+01
  113093, -1.386728e+01,0.000000e+00,-2.424102e+01
  113094, -1.832920e+01,0.000000e+00,-2.299211e+01
  113095, -2.293701e+01,0.000000e+00,-2.293528e+01
  113096, -2.740284e+01,0.000000e+00,-2.740135e+01
  113097, -2.732621e+01,0.000000e+00,-2.326549e+01
  113098, -2.743888e+01,0.000000e+00,-1.912003e+01
  113099, -2.804786e+01,0.000000e+00,-1.529172e+01
  113100, -2.879348e+01,0.000000e+00,-1.224155e+01
  113101, -1.224509e+01,0.000000e+00,-2.874177e+01
  113102, -1.529967e+01,0.000000e+00,-2.803412e+01
  113103, -1.912973e+01,0.000000e+00,-2.744304e+01
  113104, -2.326865e+01,0.000000e+00,-2.732803e+01
  113105, -1.050000e+01,2.000000e+01,1.402221e-15
  113106, -2.336470e+00,2.000000e+01,-1.023674e+01
  113107, -4.555779e+00,2.000000e+01,-9.460173e+00
  113108, -6.546643e+00,2.000000e+01,-8.209231e+00
  113109, -8.209231e+00,2.000000e+01,-6.546643e+00
  113110, -9.460173e+00,2.000000e+01,-4.555779e+00
  113111, -1.023674e+01,2.000000e+01,-2.336470e+00
  113112, -1.900000e+01,2.000000e+01,0.000000e+00
  113113, -1.616667e+01,2.000000e+01,0.000000e+00
  113114, -1.333333e+01,2.000000e+01,0.000000e+00
  113115, -1.880661e+01,2.000000e+01,-2.703982e+00
  113116, -1.823037e+01,2.000000e+01,-5.352919e+00
  113117, -1.728301e+01,2.000000e+01,-7.892885e+00
  113118, -1.598382e+01,2.000000e+01,-1.027218e+01
  113119, -1.435924e+01,2.000000e+01,-1.244235e+01
  113120, -1.244235e+01,2.000000e+01,-1.435924e+01
  113121, -1.027218e+01,2.000000e+01,-1.598382e+01
  113122, -7.892885e+00,2.000000e+01,-1.728301e+01
  113123, -5.352919e+00,2.000000e+01,-1.823037e+01
  113124, -2.703982e+00,2.000000e+01,-1.880661e+01
  113125, -2.535234e+00,2.000000e+01,-1.284097e+01
  113126, -5.056696e+00,2.000000e+01,-1.211696e+01
  113127, -7.964110e+00,2.000000e+01,-1.117287e+01
  113128, -1.291576e+01,2.000000e+01,-2.713571e+00
  113129, -1.584531e+01,2.000000e+01,-2.626897e+00
  113130, -1.548843e+01,2.000000e+01,-5.156638e+00
  113131, -1.557382e+01,2.000000e+01,-7.184691e+00
  113132, -1.395003e+01,2.000000e+01,-8.504550e+00
  113133, -1.226048e+01,2.000000e+01,-1.049758e+01
  113134, -1.056790e+01,2.000000e+01,-1.250772e+01
  113135, -9.444892e+00,2.000000e+01,-1.431202e+01
  113136, -7.486775e+00,2.000000e+01,-1.448938e+01
  113137, -5.099791e+00,2.000000e+01,-1.513991e+01
  113138, -2.589367e+00,2.000000e+01,-1.573256e+01
  113139, -1.240099e+01,2.000000e+01,-5.875943e+00
  113140, -1.019424e+01,2.000000e+01,-8.496537e+00
  113141, -1.050000e+01,2.380000e+01,-1.402221e-15
  113142, -1.023674e+01,2.380000e+01,-2.336470e+00
  113143, -9.460173e+00,2.380000e+01,-4.555779e+00
  113144, -8.209231e+00,2.380000e+01,-6.546643e+00
  113145, -6.546643e+00,2.380000e+01,-8.209231e+00
  113146, -4.555779e+00,2.380000e+01,-9.460173e+00
  113147, -2.336470e+00,2.380000e+01,-1.023674e+01
  113148, -1.050000e+01,2.190000e+01,0.000000e+00
  113149, -2.336470e+00,2.190000e+01,-1.023674e+01
  113150, -4.555779e+00,2.190000e+01,-9.460173e+00
  113151, -6.546643e+00,2.190000e+01,-8.209231e+00
  113152, -8.209231e+00,2.190000e+01,-6.546643e+00
  113153, -9.460173e+00,2.190000e+01,-4.555779e+00
  113154, -1.023674e+01,2.190000e+01,-2.336470e+00
  113155, -1.900000e+01,2.380000e+01,0.000000e+00
  113156, -1.900000e+01,2.190000e+01,0.000000e+00
  113157, -1.333333e+01,2.380000e+01,0.000000e+00
  113158, -1.616667e+01,2.380000e+01,0.000000e+00
  113159, -1.616667e+01,2.190000e+01,0.000000e+00
  113160, -1.333333e+01,2.190000e+01,0.000000e+00
  113161, -2.703982e+00,2.380000e+01,-1.880661e+01
  113162, -5.352919e+00,2.380000e+01,-1.823037e+01
  113163, -7.892885e+00,2.380000e+01,-1.728301e+01
  113164, -1.027218e+01,2.380000e+01,-1.598382e+01
  113165, -1.244235e+01,2.380000e+01,-1.435924e+01
  113166, -1.435924e+01,2.380000e+01,-1.244235e+01
  113167, -1.598382e+01,2.380000e+01,-1.027218e+01
  113168, -1.728301e+01,2.380000e+01,-7.892885e+00
  113169, -1.823037e+01,2.380000e+01,-5.352919e+00
  113170, -1.880661e+01,2.380000e+01,-2.703982e+00
  113171, -2.703982e+00,2.190000e+01,-1.880661e+01
  113172, -5.352919e+00,2.190000e+01,-1.823037e+01
  113173, -7.892885e+00,2.190000e+01,-1.728301e+01
  113174, -1.027218e+01,2.190000e+01,-1.598382e+01
  113175, -1.244235e+01,2.190000e+01,-1.435924e+01
  113176, -1.435924e+01,2.190000e+01,-1.244235e+01
  113177, -1.598382e+01,2.190000e+01,-1.027218e+01
  113178, -1.728301e+01,2.190000e+01,-7.892885e+00
  113179, -1.823037e+01,2.190000e+01,-5.352919e+00
  113180, -1.880661e+01,2.190000e+01,-2.703982e+00
  113181, -2.535234e+00,2.190000e+01,-1.284097e+01
  113182, -5.056696e+00,2.190000e+01,-1.211696e+01
  113183, -7.964110e+00,2.190000e+01,-1.117287e+01
  113184, -1.019424e+01,2.190000e+01,-8.496537e+00
  113185, -1.240099e+01,2.190000e+01,-5.875943e+00
  113186, -1.291576e+01,2.190000e+01,-2.713571e+00
  113187, -1.584531e+01,2.190000e+01,-2.626897e+00
  113188, -1.548843e+01,2.190000e+01,-5.156638e+00
  113189, -1.557382e+01,2.190000e+01,-7.184691e+00
  113190, -1.395003e+01,2.190000e+01,-8.504550e+00
  113191, -1.226048e+01,2.190000e+01,-1.049758e+01
  113192, -1.056790e+01,2.190000e+01,-1.250772e+01
  113193, -9.444892e+00,2.190000e+01,-1.431202e+01
  113194, -7.486775e+00,2.190000e+01,-1.448938e+01
  113195, -5.099791e+00,2.190000e+01,-1.513991e+01
  113196, -2.589367e+00,2.190000e+01,-1.573256e+01
  113197, -2.535234e+00,2.380000e+01,-1.284097e+01
  113198, -5.056696e+00,2.380000e+01,-1.211696e+01
  113199, -7.964110e+00,2.380000e+01,-1.117287e+01
  113200, -1.019424e+01,2.380000e+01,-8.496537e+00
  113201, -1.240099e+01,2.380000e+01,-5.875943e+00
  113202, -1.291576e+01,2.380000e+01,-2.713571e+00
  113203, -1.584531e+01,2.380000e+01,-2.626897e+00
  113204, -1.548843e+01,2.380000e+01,-5.156638e+00
  113205, -1.557382e+01,2.380000e+01,-7.184691e+00
  113206, -1.395003e+01,2.380000e+01,-8.504550e+00
  113207, -1.226048e+01,2.380000e+01,-1.049758e+01
  113208, -1.056790e+01,2.380000e+01,-1.250772e+01
  113209, -9.444892e+00,2.380000e+01,-1.431202e+01
  113210, -7.486775e+00,2.380000e+01,-1.448938e+01
  113211, -5.099791e+00,2.380000e+01,-1.513991e+01
  113212, -2.589367e+00,2.380000e+01,-1.573256e+01
  113213, -1.000000e+01,2.380000e+01,1.775738e-15
  113214, -2.225209e+00,2.380000e+01,-9.749279e+00
  113215, -4.338837e+00,2.380000e+01,-9.009689e+00
  113216, -6.234898e+00,2.380000e+01,-7.818315e+00
  113217, -7.818315e+00,2.380000e+01,-6.234898e+00
  113218, -9.009689e+00,2.380000e+01,-4.338837e+00
  113219, -9.749279e+00,2.380000e+01,-2.225209e+00
  113220, -1.499999e+01,2.380000e+01,0.000000e+00
  113221, -1.250000e+01,2.380000e+01,0.000000e+00
  113222, -1.499999e+01,2.380000e+01,-8.660250e+00
  113223, -1.499999e+01,2.380000e+01,-2.886750e+00
  113224, -1.499999e+01,2.380000e+01,-5.773500e+00
  113225, -1.285714e+01,2.380000e+01,-9.897429e+00
  113226, -1.071428e+01,2.380000e+01,-1.113461e+01
  113227, -8.571425e+00,2.380000e+01,-1.237179e+01
  113228, -6.428568e+00,2.380000e+01,-1.360896e+01
  113229, -4.285712e+00,2.380000e+01,-1.484614e+01
  113230, -2.142856e+00,2.380000e+01,-1.608332e+01
  113231, -2.219892e+00,2.380000e+01,-1.191139e+01
  113232, -4.769307e+00,2.380000e+01,-1.165395e+01
  113233, -7.274332e+00,2.380000e+01,-1.008136e+01
  113234, -1.226481e+01,2.380000e+01,-2.789151e+00
  113235, -1.983660e+00,2.380000e+01,-1.401102e+01
  113236, -1.173092e+01,2.380000e+01,-6.217179e+00
  113237, -9.409470e+00,2.380000e+01,-8.454192e+00
  113238, -3.679560e+00,2.380000e+01,-1.350370e+01
  113239, -1.000000e+01,4.180000e+01,-1.775738e-15
  113240, -1.000000e+01,2.637143e+01,3.936365e-16
  113241, -1.000000e+01,2.894286e+01,2.361819e-16
  113242, -1.000000e+01,3.151429e+01,7.872729e-17
  113243, -1.000000e+01,3.408571e+01,-7.872729e-17
  113244, -1.000000e+01,3.665714e+01,-2.361819e-16
  113245, -1.000000e+01,3.922857e+01,-3.936365e-16
  113246, -1.499999e+01,4.180000e+01,0.000000e+00
  113247, -1.250000e+01,4.180000e+01,0.000000e+00
  113248, -1.499999e+01,3.922857e+01,0.000000e+00
  113249, -1.499999e+01,3.665714e+01,0.000000e+00
  113250, -1.499999e+01,3.408571e+01,0.000000e+00
  113251, -1.499999e+01,3.151429e+01,0.000000e+00
  113252, -1.499999e+01,2.894286e+01,0.000000e+00
  113253, -1.499999e+01,2.637143e+01,0.000000e+00
  113254, -1.250000e+01,2.637143e+01,0.000000e+00
  113255, -1.250000e+01,2.894286e+01,0.000000e+00
  113256, -1.250000e+01,3.151429e+01,0.000000e+00
  113257, -1.250000e+01,3.408571e+01,0.000000e+00
  113258, -1.250000e+01,3.665714e+01,0.000000e+00
  113259, -1.250000e+01,3.922857e+01,0.000000e+00
  113260, -9.749279e+00,4.180000e+01,-2.225209e+00
  113261, -9.009689e+00,4.180000e+01,-4.338837e+00
  113262, -7.818315e+00,4.180000e+01,-6.234898e+00
  113263, -6.234898e+00,4.180000e+01,-7.818315e+00
  113264, -4.338837e+00,4.180000e+01,-9.009689e+00
  113265, -2.225209e+00,4.180000e+01,-9.749279e+00
  113266, -2.225209e+00,2.637143e+01,-9.749279e+00
  113267, -2.225209e+00,2.894286e+01,-9.749279e+00
  113268, -2.225209e+00,3.151429e+01,-9.749279e+00
  113269, -2.225209e+00,3.408571e+01,-9.749279e+00
  113270, -2.225209e+00,3.665714e+01,-9.749279e+00
  113271, -2.225209e+00,3.922857e+01,-9.749279e+00
  113272, -4.338837e+00,2.637143e+01,-9.009689e+00
  113273, -4.338837e+00,2.894286e+01,-9.009689e+00
  113274, -4.338837e+00,3.151429e+01,-9.009689e+00
  113275, -4.338837e+00,3.408571e+01,-9.009689e+00
  113276, -4.338837e+00,3.665714e+01,-9.009689e+00
  113277, -4.338837e+00,3.922857e+01,-9.009689e+00
  113278, -6.234898e+00,2.637143e+01,-7.818315e+00
  113279, -6.234898e+00,2.894286e+01,-7.818315e+00
  113280, -6.234898e+00,3.151429e+01,-7.818315e+00
  113281, -6.234898e+00,3.408571e+01,-7.818315e+00
  113282, -6.234898e+00,3.665714e+01,-7.818315e+00
  113283, -6.234898e+00,3.922857e+01,-7.818315e+00
  113284, -7.818315e+00,2.637143e+01,-6.234898e+00
  113285, -7.818315e+00,2.894286e+01,-6.234898e+00
  113286, -7.818315e+00,3.151429e+01,-6.234898e+00
  113287, -7.818315e+00,3.408571e+01,-6.234898e+00
  113288, -7.818315e+00,3.665714e+01,-6.234898e+00
  113289, -7.818315e+00,3.922857e+01,-6.234898e+00
  113290, -9.009689e+00,2.637143e+01,-4.338837e+00
  113291, -9.009689e+00,2.894286e+01,-4.338837e+00
  113292, -9.009689e+00,3.151429e+01,-4.338837e+00
  113293, -9.009689e+00,3.408571e+01,-4.338837e+00
  113294, -9.009689e+00,3.665714e+01,-4.338837e+00
  113295, -9.009689e+00,3.922857e+01,-4.338837e+00
  113296, -9.749279e+00,2.637143e+01,-2.225209e+00
  113297, -9.749279e+00,2.894286e+01,-2.225209e+00
  113298, -9.749279e+00,3.151429e+01,-2.225209e+00
  113299, -9.749279e+00,3.408571e+01,-2.225209e+00
  113300, -9.749279e+00,3.665714e+01,-2.225209e+00
  113301, -9.749279e+00,3.922857e+01,-2.225209e+00
  113302, -1.499999e+01,4.180000e+01,-8.660250e+00
  113303, -1.499999e+01,2.637143e+01,-8.660250e+00
  113304, -1.499999e+01,2.894286e+01,-8.660250e+00
  113305, -1.499999e+01,3.151429e+01,-8.660250e+00
  113306, -1.499999e+01,3.408571e+01,-8.660250e+00
  113307, -1.499999e+01,3.665714e+01,-8.660250e+00
  113308, -1.499999e+01,3.922857e+01,-8.660250e+00
  113309, -2.142856e+00,4.180000e+01,-1.608332e+01
  113310, -4.285712e+00,4.180000e+01,-1.484614e+01
  113311, -6.428568e+00,4.180000e+01,-1.360896e+01
  113312, -8.571425e+00,4.180000e+01,-1.237179e+01
  113313, -1.071428e+01,4.180000e+01,-1.113461e+01
  113314, -1.285714e+01,4.180000e+01,-9.897429e+00
  113315, -1.285714e+01,2.637143e+01,-9.897429e+00
  113316, -1.285714e+01,2.894286e+01,-9.897429e+00
  113317, -1.285714e+01,3.151429e+01,-9.897429e+00
  113318, -1.285714e+01,3.408571e+01,-9.897429e+00
  113319, -1.285714e+01,3.665714e+01,-9.897429e+00
  113320, -1.285714e+01,3.922857e+01,-9.897429e+00
  113321, -1.071428e+01,2.637143e+01,-1.113461e+01
  113322, -1.071428e+01,2.894286e+01,-1.113461e+01
  113323, -1.071428e+01,3.151429e+01,-1.113461e+01
  113324, -1.071428e+01,3.408571e+01,-1.113461e+01
  113325, -1.071428e+01,3.665714e+01,-1.113461e+01
  113326, -1.071428e+01,3.922857e+01,-1.113461e+01
  113327, -8.571425e+00,2.637143e+01,-1.237179e+01
  113328, -8.571425e+00,2.894286e+01,-1.237179e+01
  113329, -8.571425e+00,3.151429e+01,-1.237179e+01
  113330, -8.571425e+00,3.408571e+01,-1.237179e+01
  113331, -8.571425e+00,3.665714e+01,-1.237179e+01
  113332, -8.571425e+00,3.922857e+01,-1.237179e+01
  113333, -6.428568e+00,2.637143e+01,-1.360896e+01
  113334, -6.428568e+00,2.894286e+01,-1.360896e+01
  113335, -6.428568e+00,3.151429e+01,-1.360896e+01
  113336, -6.428568e+00,3.408571e+01,-1.360896e+01
  113337, -6.428568e+00,3.665714e+01,-1.360896e+01
  113338, -6.428568e+00,3.922857e+01,-1.360896e+01
  113339, -4.285712e+00,2.637143e+01,-1.484614e+01
  113340, -4.285712e+00,2.894286e+01,-1.484614e+01
  113341, -4.285712e+00,3.151429e+01,-1.484614e+01
  113342, -4.285712e+00,3.408571e+01,-1.484614e+01
  113343, -4.285712e+00,3.665714e+01,-1.484614e+01
  113344, -4.285712e+00,3.922857e+01,-1.484614e+01
  113345, -2.142856e+00,2.637143e+01,-1.608332e+01
  113346, -2.142856e+00,2.894286e+01,-1.608332e+01
  113347, -2.142856e+00,3.151429e+01,-1.608332e+01
  113348, -2.142856e+00,3.408571e+01,-1.608332e+01
  113349, -2.142856e+00,3.665714e+01,-1.608332e+01
  113350, -2.142856e+00,3.922857e+01,-1.608332e+01
  113351, -1.499999e+01,4.180000e+01,-5.773500e+00
  113352, -1.499999e+01,4.180000e+01,-2.886750e+00
  113353, -1.499999e+01,2.637143e+01,-2.886750e+00
  113354, -1.499999e+01,2.894286e+01,-2.886750e+00
  113355, -1.499999e+01,3.151429e+01,-2.886750e+00
  113356, -1.499999e+01,3.408571e+01,-2.886750e+00
  113357, -1.499999e+01,3.665714e+01,-2.886750e+00
  113358, -1.499999e+01,3.922857e+01,-2.886750e+00
  113359, -1.499999e+01,2.637143e+01,-5.773500e+00
  113360, -1.499999e+01,2.894286e+01,-5.773500e+00
  113361, -1.499999e+01,3.151429e+01,-5.773500e+00
  113362, -1.499999e+01,3.408571e+01,-5.773500e+00
  113363, -1.499999e+01,3.665714e+01,-5.773500e+00
  113364, -1.499999e+01,3.922857e+01,-5.773500e+00
  113365, -2.219892e+00,2.637143e+01,-1.191139e+01
  113366, -4.769307e+00,2.637143e+01,-1.165395e+01
  113367, -7.274332e+00,2.637143e+01,-1.008136e+01
  113368, -9.409470e+00,2.637143e+01,-8.454192e+00
  113369, -1.173092e+01,2.637143e+01,-6.217179e+00
  113370, -1.226481e+01,2.637143e+01,-2.789151e+00
  113371, -1.983660e+00,2.637143e+01,-1.401102e+01
  113372, -3.679560e+00,2.637143e+01,-1.350370e+01
  113373, -2.219892e+00,2.894286e+01,-1.191139e+01
  113374, -4.769307e+00,2.894286e+01,-1.165395e+01
  113375, -7.274332e+00,2.894286e+01,-1.008136e+01
  113376, -9.409470e+00,2.894286e+01,-8.454192e+00
  113377, -1.173092e+01,2.894286e+01,-6.217179e+00
  113378, -1.226481e+01,2.894286e+01,-2.789151e+00
  113379, -1.983660e+00,2.894286e+01,-1.401102e+01
  113380, -3.679560e+00,2.894286e+01,-1.350370e+01
  113381, -2.219892e+00,3.151429e+01,-1.191139e+01
  113382, -4.769307e+00,3.151429e+01,-1.165395e+01
  113383, -7.274332e+00,3.151429e+01,-1.008136e+01
  113384, -9.409470e+00,3.151429e+01,-8.454192e+00
  113385, -1.173092e+01,3.151429e+01,-6.217179e+00
  113386, -1.226481e+01,3.151429e+01,-2.789151e+00
  113387, -1.983660e+00,3.151429e+01,-1.401102e+01
  113388, -3.679560e+00,3.151429e+01,-1.350370e+01
  113389, -2.219892e+00,3.408571e+01,-1.191139e+01
  113390, -4.769307e+00,3.408571e+01,-1.165395e+01
  113391, -7.274332e+00,3.408571e+01,-1.008136e+01
  113392, -9.409470e+00,3.408571e+01,-8.454192e+00
  113393, -1.173092e+01,3.408571e+01,-6.217179e+00
  113394, -1.226481e+01,3.408571e+01,-2.789151e+00
  113395, -1.983660e+00,3.408571e+01,-1.401102e+01
  113396, -3.679560e+00,3.408571e+01,-1.350370e+01
  113397, -2.219892e+00,3.665714e+01,-1.191139e+01
  113398, -4.769307e+00,3.665714e+01,-1.165395e+01
  113399, -7.274332e+00,3.665714e+01,-1.008136e+01
  113400, -9.409470e+00,3.665714e+01,-8.454192e+00
  113401, -1.173092e+01,3.665714e+01,-6.217179e+00
  113402, -1.226481e+01,3.665714e+01,-2.789151e+00
  113403, -1.983660e+00,3.665714e+01,-1.401102e+01
  113404, -3.679560e+00,3.665714e+01,-1.350370e+01
  113405, -2.219892e+00,3.922857e+01,-1.191139e+01
  113406, -4.769307e+00,3.922857e+01,-1.165395e+01
  113407, -7.274332e+00,3.922857e+01,-1.008136e+01
  113408, -9.409470e+00,3.922857e+01,-8.454192e+00
  113409, -1.173092e+01,3.922857e+01,-6.217179e+00
  113410, -1.226481e+01,3.922857e+01,-2.789151e+00
  113411, -1.983660e+00,3.922857e+01,-1.401102e+01
  113412, -3.679560e+00,3.922857e+01,-1.350370e+01
  113413, -2.219892e+00,4.180000e+01,-1.191139e+01
  113414, -4.769307e+00,4.180000e+01,-1.165395e+01
  113415, -7.274332e+00,4.180000e+01,-1.008136e+01
  113416, -9.409470e+00,4.180000e+01,-8.454192e+00
  113417, -1.173092e+01,4.180000e+01,-6.217179e+00
  113418, -1.226481e+01,4.180000e+01,-2.789151e+00
  113419, -1.983660e+00,4.180000e+01,-1.401102e+01
  113420, -3.679560e+00,4.180000e+01,-1.350370e+01
  113720, 0.000000e+00,-6.735557e-16,-1.100000e+01
  113721, 0.000000e+00,-6.123234e-16,-1.000000e+01
  113722, 0.000000e+00,-8.000000e+01,-1.100000e+01
  113723, 0.000000e+00,-7.750000e+01,-1.100000e+01
  113724, 0.000000e+00,-7.500000e+01,-1.100000e+01
  113725, 0.000000e+00,-7.250000e+01,-1.100000e+01
  113726, 0.000000e+00,-7.000000e+01,-1.100000e+01
  113727, 0.000000e+00,-6.750000e+01,-1.100000e+01
  113728, 0.000000e+00,-6.500000e+01,-1.100000e+01
  113729, 0.000000e+00,-6.250000e+01,-1.100000e+01
  113730, 0.000000e+00,-6.000000e+01,-1.100000e+01
  113731, 0.000000e+00,-5.750000e+01,-1.100000e+01
  113732, 0.000000e+00,-5.500000e+01,-1.100000e+01
  113733, 0.000000e+00,-5.250000e+01,-1.100000e+01
  113734, 0.000000e+00,-5.000000e+01,-1.100000e+01
  113735, 0.000000e+00,-4.750000e+01,-1.100000e+01
  113736, 0.000000e+00,-4.500000e+01,-1.100000e+01
  113737, 0.000000e+00,-4.250000e+01,-1.100000e+01
  113738, 0.000000e+00,-4.000000e+01,-1.100000e+01
  113739, 0.000000e+00,-3.750000e+01,-1.100000e+01
  113740, 0.000000e+00,-3.500000e+01,-1.100000e+01
  113741, 0.000000e+00,-3.250000e+01,-1.100000e+01
  113742, 0.000000e+00,-3.000000e+01,-1.100000e+01
  113743, 0.000000e+00,-2.750000e+01,-1.100000e+01
  113744, 0.000000e+00,-2.500000e+01,-1.100000e+01
  113745, 0.000000e+00,-2.250000e+01,-1.100000e+01
  113746, 0.000000e+00,-2.000000e+01,-1.100000e+01
  113747, 0.000000e+00,-1.750000e+01,-1.100000e+01
  113748, 0.000000e+00,-1.500000e+01,-1.100000e+01
  113749, 0.000000e+00,-1.250000e+01,-1.100000e+01
  113750, 0.000000e+00,-1.000000e+01,-1.100000e+01
  113751, 0.000000e+00,-7.500000e+00,-1.100000e+01
  113752, 0.000000e+00,-5.000000e+00,-1.100000e+01
  113753, 0.000000e+00,-2.500000e+00,-1.100000e+01
  113754, 0.000000e+00,-8.000000e+01,-1.000000e+01
  113755, 0.000000e+00,-2.500000e+00,-1.000000e+01
  113756, 0.000000e+00,-5.000000e+00,-1.000000e+01
  113757, 0.000000e+00,-7.500000e+00,-1.000000e+01
  113758, 0.000000e+00,-1.000000e+01,-1.000000e+01
  113759, 0.000000e+00,-1.250000e+01,-1.000000e+01
  113760, 0.000000e+00,-1.500000e+01,-1.000000e+01
  113761, 0.000000e+00,-1.750000e+01,-1.000000e+01
  113762, 0.000000e+00,-2.000000e+01,-1.000000e+01
  113763, 0.000000e+00,-2.250000e+01,-1.000000e+01
  113764, 0.000000e+00,-2.500000e+01,-1.000000e+01
  113765, 0.000000e+00,-2.750000e+01,-1.000000e+01
  113766, 0.000000e+00,-3.000000e+01,-1.000000e+01
  113767, 0.000000e+00,-3.250000e+01,-1.000000e+01
  113768, 0.000000e+00,-3.500000e+01,-1.000000e+01
  113769, 0.000000e+00,-3.750000e+01,-1.000000e+01
  113770, 0.000000e+00,-4.000000e+01,-1.000000e+01
  113771, 0.000000e+00,-4.250000e+01,-1.000000e+01
  113772, 0.000000e+00,-4.500000e+01,-1.000000e+01
  113773, 0.000000e+00,-4.750000e+01,-1.000000e+01
  113774, 0.000000e+00,-5.000000e+01,-1.000000e+01
  113775, 0.000000e+00,-5.250000e+01,-1.000000e+01
  113776, 0.000000e+00,-5.500000e+01,-1.000000e+01
  113777, 0.000000e+00,-5.750000e+01,-1.000000e+01
  113778, 0.000000e+00,-6.000000e+01,-1.000000e+01
  113779, 0.000000e+00,-6.250000e+01,-1.000000e+01
  113780, 0.000000e+00,-6.500000e+01,-1.000000e+01
  113781, 0.000000e+00,-6.750000e+01,-1.000000e+01
  113782, 0.000000e+00,-7.000000e+01,-1.000000e+01
  113783, 0.000000e+00,-7.250000e+01,-1.000000e+01
  113784, 0.000000e+00,-7.500000e+01,-1.000000e+01
  113785, 0.000000e+00,-7.750000e+01,-1.000000e+01
  113786, 1.100000e+01,-8.000000e+01,2.449294e-15
  113787, 2.447730e+00,-8.000000e+01,-1.072421e+01
  113788, 4.772721e+00,-8.000000e+01,-9.910658e+00
  113789, 6.858388e+00,-8.000000e+01,-8.600146e+00
  113790, 8.600146e+00,-8.000000e+01,-6.858388e+00
  113791, 9.910658e+00,-8.000000e+01,-4.772721e+00
  113792, 1.072421e+01,-8.000000e+01,-2.447730e+00
  113793, 1.000000e+01,-8.000000e+01,2.449294e-15
  113794, 9.749279e+00,-8.000000e+01,-2.225209e+00
  113795, 9.009689e+00,-8.000000e+01,-4.338837e+00
  113796, 7.818315e+00,-8.000000e+01,-6.234898e+00
  113797, 6.234898e+00,-8.000000e+01,-7.818315e+00
  113798, 4.338837e+00,-8.000000e+01,-9.009689e+00
  113799, 2.225209e+00,-8.000000e+01,-9.749279e+00
  113800, 1.100000e+01,0.000000e+00,-2.449294e-15
  113801, 1.072421e+01,-1.498803e-16,-2.447730e+00
  113802, 9.910658e+00,-2.922449e-16,-4.772721e+00
  113803, 8.600146e+00,-4.199551e-16,-6.858388e+00
  113804, 6.858388e+00,-5.266071e-16,-8.600146e+00
  113805, 4.772721e+00,-6.068528e-16,-9.910658e+00
  113806, 2.447730e+00,-6.566683e-16,-1.072421e+01
  113807, 1.100000e+01,-7.750000e+01,2.296213e-15
  113808, 1.100000e+01,-7.500000e+01,2.143132e-15
  113809, 1.100000e+01,-7.250000e+01,1.990051e-15
  113810, 1.100000e+01,-7.000000e+01,1.836970e-15
  113811, 1.100000e+01,-6.750000e+01,1.683889e-15
  113812, 1.100000e+01,-6.500000e+01,1.530808e-15
  113813, 1.100000e+01,-6.250000e+01,1.377728e-15
  113814, 1.100000e+01,-6.000000e+01,1.224647e-15
  113815, 1.100000e+01,-5.750000e+01,1.071566e-15
  113816, 1.100000e+01,-5.500000e+01,9.184851e-16
  113817, 1.100000e+01,-5.250000e+01,7.654042e-16
  113818, 1.100000e+01,-5.000000e+01,6.123234e-16
  113819, 1.100000e+01,-4.750000e+01,4.592425e-16
  113820, 1.100000e+01,-4.500000e+01,3.061617e-16
  113821, 1.100000e+01,-4.250000e+01,1.530808e-16
  113822, 1.100000e+01,-4.000000e+01,0.000000e+00
  113823, 1.100000e+01,-3.750000e+01,-1.530808e-16
  113824, 1.100000e+01,-3.500000e+01,-3.061617e-16
  113825, 1.100000e+01,-3.250000e+01,-4.592425e-16
  113826, 1.100000e+01,-3.000000e+01,-6.123234e-16
  113827, 1.100000e+01,-2.750000e+01,-7.654042e-16
  113828, 1.100000e+01,-2.500000e+01,-9.184851e-16
  113829, 1.100000e+01,-2.250000e+01,-1.071566e-15
  113830, 1.100000e+01,-2.000000e+01,-1.224647e-15
  113831, 1.100000e+01,-1.750000e+01,-1.377728e-15
  113832, 1.100000e+01,-1.500000e+01,-1.530808e-15
  113833, 1.100000e+01,-1.250000e+01,-1.683889e-15
  113834, 1.100000e+01,-1.000000e+01,-1.836970e-15
  113835, 1.100000e+01,-7.500000e+00,-1.990051e-15
  113836, 1.100000e+01,-5.000000e+00,-2.143132e-15
  113837, 1.100000e+01,-2.500000e+00,-2.296213e-15
  113838, 2.447730e+00,-7.750000e+01,-1.072421e+01
  113839, 2.447730e+00,-7.500000e+01,-1.072421e+01
  113840, 2.447730e+00,-7.250000e+01,-1.072421e+01
  113841, 2.447730e+00,-7.000000e+01,-1.072421e+01
  113842, 2.447730e+00,-6.750000e+01,-1.072421e+01
  113843, 2.447730e+00,-6.500000e+01,-1.072421e+01
  113844, 2.447730e+00,-6.250000e+01,-1.072421e+01
  113845, 2.447730e+00,-6.000000e+01,-1.072421e+01
  113846, 2.447730e+00,-5.750000e+01,-1.072421e+01
  113847, 2.447730e+00,-5.500000e+01,-1.072421e+01
  113848, 2.447730e+00,-5.250000e+01,-1.072421e+01
  113849, 2.447730e+00,-5.000000e+01,-1.072421e+01
  113850, 2.447730e+00,-4.750000e+01,-1.072421e+01
  113851, 2.447730e+00,-4.500000e+01,-1.072421e+01
  113852, 2.447730e+00,-4.250000e+01,-1.072421e+01
  113853, 2.447730e+00,-4.000000e+01,-1.072421e+01
  113854, 2.447730e+00,-3.750000e+01,-1.072421e+01
  113855, 2.447730e+00,-3.500000e+01,-1.072421e+01
  113856, 2.447730e+00,-3.250000e+01,-1.072421e+01
  113857, 2.447730e+00,-3.000000e+01,-1.072421e+01
  113858, 2.447730e+00,-2.750000e+01,-1.072421e+01
  113859, 2.447730e+00,-2.500000e+01,-1.072421e+01
  113860, 2.447730e+00,-2.250000e+01,-1.072421e+01
  113861, 2.447730e+00,-2.000000e+01,-1.072421e+01
  113862, 2.447730e+00,-1.750000e+01,-1.072421e+01
  113863, 2.447730e+00,-1.500000e+01,-1.072421e+01
  113864, 2.447730e+00,-1.250000e+01,-1.072421e+01
  113865, 2.447730e+00,-1.000000e+01,-1.072421e+01
  113866, 2.447730e+00,-7.500000e+00,-1.072421e+01
  113867, 2.447730e+00,-5.000000e+00,-1.072421e+01
  113868, 2.447730e+00,-2.500000e+00,-1.072421e+01
  113869, 4.772721e+00,-7.750000e+01,-9.910658e+00
  113870, 4.772721e+00,-7.500000e+01,-9.910658e+00
  113871, 4.772721e+00,-7.250000e+01,-9.910658e+00
  113872, 4.772721e+00,-7.000000e+01,-9.910658e+00
  113873, 4.772721e+00,-6.750000e+01,-9.910658e+00
  113874, 4.772721e+00,-6.500000e+01,-9.910658e+00
  113875, 4.772721e+00,-6.250000e+01,-9.910658e+00
  113876, 4.772721e+00,-6.000000e+01,-9.910658e+00
  113877, 4.772721e+00,-5.750000e+01,-9.910658e+00
  113878, 4.772721e+00,-5.500000e+01,-9.910658e+00
  113879, 4.772721e+00,-5.250000e+01,-9.910658e+00
  113880, 4.772721e+00,-5.000000e+01,-9.910658e+00
  113881, 4.772721e+00,-4.750000e+01,-9.910658e+00
  113882, 4.772721e+00,-4.500000e+01,-9.910658e+00
  113883, 4.772721e+00,-4.250000e+01,-9.910658e+00
  113884, 4.772721e+00,-4.000000e+01,-9.910658e+00
  113885, 4.772721e+00,-3.750000e+01,-9.910658e+00
  113886, 4.772721e+00,-3.500000e+01,-9.910658e+00
  113887, 4.772721e+00,-3.250000e+01,-9.910658e+00
  113888, 4.772721e+00,-3.000000e+01,-9.910658e+00
  113889, 4.772721e+00,-2.750000e+01,-9.910658e+00
  113890, 4.772721e+00,-2.500000e+01,-9.910658e+00
  113891, 4.772721e+00,-2.250000e+01,-9.910658e+00
  113892, 4.772721e+00,-2.000000e+01,-9.910658e+00
  113893, 4.772721e+00,-1.750000e+01,-9.910658e+00
  113894, 4.772721e+00,-1.500000e+01,-9.910658e+00
  113895, 4.772721e+00,-1.250000e+01,-9.910658e+00
  113896, 4.772721e+00,-1.000000e+01,-9.910658e+00
  113897, 4.772721e+00,-7.500000e+00,-9.910658e+00
  113898, 4.772721e+00,-5.000000e+00,-9.910658e+00
  113899, 4.772721e+00,-2.500000e+00,-9.910658e+00
  113900, 6.858388e+00,-7.750000e+01,-8.600146e+00
  113901, 6.858388e+00,-7.500000e+01,-8.600146e+00
  113902, 6.858388e+00,-7.250000e+01,-8.600146e+00
  113903, 6.858388e+00,-7.000000e+01,-8.600146e+00
  113904, 6.858388e+00,-6.750000e+01,-8.600146e+00
  113905, 6.858388e+00,-6.500000e+01,-8.600146e+00
  113906, 6.858388e+00,-6.250000e+01,-8.600146e+00
  113907, 6.858388e+00,-6.000000e+01,-8.600146e+00
  113908, 6.858388e+00,-5.750000e+01,-8.600146e+00
  113909, 6.858388e+00,-5.500000e+01,-8.600146e+00
  113910, 6.858388e+00,-5.250000e+01,-8.600146e+00
  113911, 6.858388e+00,-5.000000e+01,-8.600146e+00
  113912, 6.858388e+00,-4.750000e+01,-8.600146e+00
  113913, 6.858388e+00,-4.500000e+01,-8.600146e+00
  113914, 6.858388e+00,-4.250000e+01,-8.600146e+00
  113915, 6.858388e+00,-4.000000e+01,-8.600146e+00
  113916, 6.858388e+00,-3.750000e+01,-8.600146e+00
  113917, 6.858388e+00,-3.500000e+01,-8.600146e+00
  113918, 6.858388e+00,-3.250000e+01,-8.600146e+00
  113919, 6.858388e+00,-3.000000e+01,-8.600146e+00
  113920, 6.858388e+00,-2.750000e+01,-8.600146e+00
  113921, 6.858388e+00,-2.500000e+01,-8.600146e+00
  113922, 6.858388e+00,-2.250000e+01,-8.600146e+00
  113923, 6.858388e+00,-2.000000e+01,-8.600146e+00
  113924, 6.858388e+00,-1.750000e+01,-8.600146e+00
  113925, 6.858388e+00,-1.500000e+01,-8.600146e+00
  113926, 6.858388e+00,-1.250000e+01,-8.600146e+00
  113927, 6.858388e+00,-1.000000e+01,-8.600146e+00
  113928, 6.858388e+00,-7.500000e+00,-8.600146e+00
  113929, 6.858388e+00,-5.000000e+00,-8.600146e+00
  113930, 6.858388e+00,-2.500000e+00,-8.600146e+00
  113931, 8.600146e+00,-7.750000e+01,-6.858388e+00
  113932, 8.600146e+00,-7.500000e+01,-6.858388e+00
  113933, 8.600146e+00,-7.250000e+01,-6.858388e+00
  113934, 8.600146e+00,-7.000000e+01,-6.858388e+00
  113935, 8.600146e+00,-6.750000e+01,-6.858388e+00
  113936, 8.600146e+00,-6.500000e+01,-6.858388e+00
  113937, 8.600146e+00,-6.250000e+01,-6.858388e+00
  113938, 8.600146e+00,-6.000000e+01,-6.858388e+00
  113939, 8.600146e+00,-5.750000e+01,-6.858388e+00
  113940, 8.600146e+00,-5.500000e+01,-6.858388e+00
  113941, 8.600146e+00,-5.250000e+01,-6.858388e+00
  113942, 8.600146e+00,-5.000000e+01,-6.858388e+00
  113943, 8.600146e+00,-4.750000e+01,-6.858388e+00
  113944, 8.600146e+00,-4.500000e+01,-6.858388e+00
  113945, 8.600146e+00,-4.250000e+01,-6.858388e+00
  113946, 8.600146e+00,-4.000000e+01,-6.858388e+00
  113947, 8.600146e+00,-3.750000e+01,-6.858388e+00
  113948, 8.600146e+00,-3.500000e+01,-6.858388e+00
  113949, 8.600146e+00,-3.250000e+01,-6.858388e+00
  113950, 8.600146e+00,-3.000000e+01,-6.858388e+00
  113951, 8.600146e+00,-2.750000e+01,-6.858388e+00
  113952, 8.600146e+00,-2.500000e+01,-6.858388e+00
  113953, 8.600146e+00,-2.250000e+01,-6.858388e+00
  113954, 8.600146e+00,-2.000000e+01,-6.858388e+00
  113955, 8.600146e+00,-1.750000e+01,-6.858388e+00
  113956, 8.600146e+00,-1.500000e+01,-6.858388e+00
  113957, 8.600146e+00,-1.250000e+01,-6.858388e+00
  113958, 8.600146e+00,-1.000000e+01,-6.858388e+00
  113959, 8.600146e+00,-7.500000e+00,-6.858388e+00
  113960, 8.600146e+00,-5.000000e+00,-6.858388e+00
  113961, 8.600146e+00,-2.500000e+00,-6.858388e+00
  113962, 9.910658e+00,-7.750000e+01,-4.772721e+00
  113963, 9.910658e+00,-7.500000e+01,-4.772721e+00
  113964, 9.910658e+00,-7.250000e+01,-4.772721e+00
  113965, 9.910658e+00,-7.000000e+01,-4.772721e+00
  113966, 9.910658e+00,-6.750000e+01,-4.772721e+00
  113967, 9.910658e+00,-6.500000e+01,-4.772721e+00
  113968, 9.910658e+00,-6.250000e+01,-4.772721e+00
  113969, 9.910658e+00,-6.000000e+01,-4.772721e+00
  113970, 9.910658e+00,-5.750000e+01,-4.772721e+00
  113971, 9.910658e+00,-5.500000e+01,-4.772721e+00
  113972, 9.910658e+00,-5.250000e+01,-4.772721e+00
  113973, 9.910658e+00,-5.000000e+01,-4.772721e+00
  113974, 9.910658e+00,-4.750000e+01,-4.772721e+00
  113975, 9.910658e+00,-4.500000e+01,-4.772721e+00
  113976, 9.910658e+00,-4.250000e+01,-4.772721e+00
  113977, 9.910658e+00,-4.000000e+01,-4.772721e+00
  113978, 9.910658e+00,-3.750000e+01,-4.772721e+00
  113979, 9.910658e+00,-3.500000e+01,-4.772721e+00
  113980, 9.910658e+00,-3.250000e+01,-4.772721e+00
  113981, 9.910658e+00,-3.000000e+01,-4.772721e+00
  113982, 9.910658e+00,-2.750000e+01,-4.772721e+00
  113983, 9.910658e+00,-2.500000e+01,-4.772721e+00
  113984, 9.910658e+00,-2.250000e+01,-4.772721e+00
  113985, 9.910658e+00,-2.000000e+01,-4.772721e+00
  113986, 9.910658e+00,-1.750000e+01,-4.772721e+00
  113987, 9.910658e+00,-1.500000e+01,-4.772721e+00
  113988, 9.910658e+00,-1.250000e+01,-4.772721e+00
  113989, 9.910658e+00,-1.000000e+01,-4.772721e+00
  113990, 9.910658e+00,-7.500000e+00,-4.772721e+00
  113991, 9.910658e+00,-5.000000e+00,-4.772721e+00
  113992, 9.910658e+00,-2.500000e+00,-4.772721e+00
  113993, 1.072421e+01,-7.750000e+01,-2.447730e+00
  113994, 1.072421e+01,-7.500000e+01,-2.447730e+00
  113995, 1.072421e+01,-7.250000e+01,-2.447730e+00
  113996, 1.072421e+01,-7.000000e+01,-2.447730e+00
  113997, 1.072421e+01,-6.750000e+01,-2.447730e+00
  113998, 1.072421e+01,-6.500000e+01,-2.447730e+00
  113999, 1.072421e+01,-6.250000e+01,-2.447730e+00
  114000, 1.072421e+01,-6.000000e+01,-2.447730e+00
  114001, 1.072421e+01,-5.750000e+01,-2.447730e+00
  114002, 1.072421e+01,-5.500000e+01,-2.447730e+00
  114003, 1.072421e+01,-5.250000e+01,-2.447730e+00
  114004, 1.072421e+01,-5.000000e+01,-2.447730e+00
  114005, 1.072421e+01,-4.750000e+01,-2.447730e+00
  114006, 1.072421e+01,-4.500000e+01,-2.447730e+00
  114007, 1.072421e+01,-4.250000e+01,-2.447730e+00
  114008, 1.072421e+01,-4.000000e+01,-2.447730e+00
  114009, 1.072421e+01,-3.750000e+01,-2.447730e+00
  114010, 1.072421e+01,-3.500000e+01,-2.447730e+00
  114011, 1.072421e+01,-3.250000e+01,-2.447730e+00
  114012, 1.072421e+01,-3.000000e+01,-2.447730e+00
  114013, 1.072421e+01,-2.750000e+01,-2.447730e+00
  114014, 1.072421e+01,-2.500000e+01,-2.447730e+00
  114015, 1.072421e+01,-2.250000e+01,-2.447730e+00
  114016, 1.072421e+01,-2.000000e+01,-2.447730e+00
  114017, 1.072421e+01,-1.750000e+01,-2.447730e+00
  114018, 1.072421e+01,-1.500000e+01,-2.447730e+00
  114019, 1.072421e+01,-1.250000e+01,-2.447730e+00
  114020, 1.072421e+01,-1.000000e+01,-2.447730e+00
  114021, 1.072421e+01,-7.500000e+00,-2.447730e+00
  114022, 1.072421e+01,-5.000000e+00,-2.447730e+00
  114023, 1.072421e+01,-2.500000e+00,-2.447730e+00
  114024, 1.000000e+01,0.000000e+00,-2.449294e-15
  114025, 1.000000e+01,-2.500000e+00,-2.296213e-15
  114026, 1.000000e+01,-5.000000e+00,-2.143132e-15
  114027, 1.000000e+01,-7.500000e+00,-1.990051e-15
  114028, 1.000000e+01,-1.000000e+01,-1.836970e-15
  114029, 1.000000e+01,-1.250000e+01,-1.683889e-15
  114030, 1.000000e+01,-1.500000e+01,-1.530808e-15
  114031, 1.000000e+01,-1.750000e+01,-1.377728e-15
  114032, 1.000000e+01,-2.000000e+01,-1.224647e-15
  114033, 1.000000e+01,-2.250000e+01,-1.071566e-15
  114034, 1.000000e+01,-2.500000e+01,-9.184851e-16
  114035, 1.000000e+01,-2.750000e+01,-7.654042e-16
  114036, 1.000000e+01,-3.000000e+01,-6.123234e-16
  114037, 1.000000e+01,-3.250000e+01,-4.592425e-16
  114038, 1.000000e+01,-3.500000e+01,-3.061617e-16
  114039, 1.000000e+01,-3.750000e+01,-1.530808e-16
  114040, 1.000000e+01,-4.000000e+01,0.000000e+00
  114041, 1.000000e+01,-4.250000e+01,1.530808e-16
  114042, 1.000000e+01,-4.500000e+01,3.061617e-16
  114043, 1.000000e+01,-4.750000e+01,4.592425e-16
  114044, 1.000000e+01,-5.000000e+01,6.123234e-16
  114045, 1.000000e+01,-5.250000e+01,7.654042e-16
  114046, 1.000000e+01,-5.500000e+01,9.184851e-16
  114047, 1.000000e+01,-5.750000e+01,1.071566e-15
  114048, 1.000000e+01,-6.000000e+01,1.224647e-15
  114049, 1.000000e+01,-6.250000e+01,1.377728e-15
  114050, 1.000000e+01,-6.500000e+01,1.530808e-15
  114051, 1.000000e+01,-6.750000e+01,1.683889e-15
  114052, 1.000000e+01,-7.000000e+01,1.836970e-15
  114053, 1.000000e+01,-7.250000e+01,1.990051e-15
  114054, 1.000000e+01,-7.500000e+01,2.143132e-15
  114055, 1.000000e+01,-7.750000e+01,2.296213e-15
  114056, 2.225209e+00,-5.969712e-16,-9.749279e+00
  114057, 4.338837e+00,-5.516843e-16,-9.009689e+00
  114058, 6.234898e+00,-4.787337e-16,-7.818315e+00
  114059, 7.818315e+00,-3.817774e-16,-6.234898e+00
  114060, 9.009689e+00,-2.656772e-16,-4.338837e+00
  114061, 9.749279e+00,-1.362548e-16,-2.225209e+00
  114062, 2.225209e+00,-2.500000e+00,-9.749279e+00
  114063, 2.225209e+00,-5.000000e+00,-9.749279e+00
  114064, 2.225209e+00,-7.500000e+00,-9.749279e+00
  114065, 2.225209e+00,-1.000000e+01,-9.749279e+00
  114066, 2.225209e+00,-1.250000e+01,-9.749279e+00
  114067, 2.225209e+00,-1.500000e+01,-9.749279e+00
  114068, 2.225209e+00,-1.750000e+01,-9.749279e+00
  114069, 2.225209e+00,-2.000000e+01,-9.749279e+00
  114070, 2.225209e+00,-2.250000e+01,-9.749279e+00
  114071, 2.225209e+00,-2.500000e+01,-9.749279e+00
  114072, 2.225209e+00,-2.750000e+01,-9.749279e+00
  114073, 2.225209e+00,-3.000000e+01,-9.749279e+00
  114074, 2.225209e+00,-3.250000e+01,-9.749279e+00
  114075, 2.225209e+00,-3.500000e+01,-9.749279e+00
  114076, 2.225209e+00,-3.750000e+01,-9.749279e+00
  114077, 2.225209e+00,-4.000000e+01,-9.749279e+00
  114078, 2.225209e+00,-4.250000e+01,-9.749279e+00
  114079, 2.225209e+00,-4.500000e+01,-9.749279e+00
  114080, 2.225209e+00,-4.750000e+01,-9.749279e+00
  114081, 2.225209e+00,-5.000000e+01,-9.749279e+00
  114082, 2.225209e+00,-5.250000e+01,-9.749279e+00
  114083, 2.225209e+00,-5.500000e+01,-9.749279e+00
  114084, 2.225209e+00,-5.750000e+01,-9.749279e+00
  114085, 2.225209e+00,-6.000000e+01,-9.749279e+00
  114086, 2.225209e+00,-6.250000e+01,-9.749279e+00
  114087, 2.225209e+00,-6.500000e+01,-9.749279e+00
  114088, 2.225209e+00,-6.750000e+01,-9.749279e+00
  114089, 2.225209e+00,-7.000000e+01,-9.749279e+00
  114090, 2.225209e+00,-7.250000e+01,-9.749279e+00
  114091, 2.225209e+00,-7.500000e+01,-9.749279e+00
  114092, 2.225209e+00,-7.750000e+01,-9.749279e+00
  114093, 4.338837e+00,-2.500000e+00,-9.009689e+00
  114094, 4.338837e+00,-5.000000e+00,-9.009689e+00
  114095, 4.338837e+00,-7.500000e+00,-9.009689e+00
  114096, 4.338837e+00,-1.000000e+01,-9.009689e+00
  114097, 4.338837e+00,-1.250000e+01,-9.009689e+00
  114098, 4.338837e+00,-1.500000e+01,-9.009689e+00
  114099, 4.338837e+00,-1.750000e+01,-9.009689e+00
  114100, 4.338837e+00,-2.000000e+01,-9.009689e+00
  114101, 4.338837e+00,-2.250000e+01,-9.009689e+00
  114102, 4.338837e+00,-2.500000e+01,-9.009689e+00
  114103, 4.338837e+00,-2.750000e+01,-9.009689e+00
  114104, 4.338837e+00,-3.000000e+01,-9.009689e+00
  114105, 4.338837e+00,-3.250000e+01,-9.009689e+00
  114106, 4.338837e+00,-3.500000e+01,-9.009689e+00
  114107, 4.338837e+00,-3.750000e+01,-9.009689e+00
  114108, 4.338837e+00,-4.000000e+01,-9.009689e+00
  114109, 4.338837e+00,-4.250000e+01,-9.009689e+00
  114110, 4.338837e+00,-4.500000e+01,-9.009689e+00
  114111, 4.338837e+00,-4.750000e+01,-9.009689e+00
  114112, 4.338837e+00,-5.000000e+01,-9.009689e+00
  114113, 4.338837e+00,-5.250000e+01,-9.009689e+00
  114114, 4.338837e+00,-5.500000e+01,-9.009689e+00
  114115, 4.338837e+00,-5.750000e+01,-9.009689e+00
  114116, 4.338837e+00,-6.000000e+01,-9.009689e+00
  114117, 4.338837e+00,-6.250000e+01,-9.009689e+00
  114118, 4.338837e+00,-6.500000e+01,-9.009689e+00
  114119, 4.338837e+00,-6.750000e+01,-9.009689e+00
  114120, 4.338837e+00,-7.000000e+01,-9.009689e+00
  114121, 4.338837e+00,-7.250000e+01,-9.009689e+00
  114122, 4.338837e+00,-7.500000e+01,-9.009689e+00
  114123, 4.338837e+00,-7.750000e+01,-9.009689e+00
  114124, 6.234898e+00,-2.500000e+00,-7.818315e+00
  114125, 6.234898e+00,-5.000000e+00,-7.818315e+00
  114126, 6.234898e+00,-7.500000e+00,-7.818315e+00
  114127, 6.234898e+00,-1.000000e+01,-7.818315e+00
  114128, 6.234898e+00,-1.250000e+01,-7.818315e+00
  114129, 6.234898e+00,-1.500000e+01,-7.818315e+00
  114130, 6.234898e+00,-1.750000e+01,-7.818315e+00
  114131, 6.234898e+00,-2.000000e+01,-7.818315e+00
  114132, 6.234898e+00,-2.250000e+01,-7.818315e+00
  114133, 6.234898e+00,-2.500000e+01,-7.818315e+00
  114134, 6.234898e+00,-2.750000e+01,-7.818315e+00
  114135, 6.234898e+00,-3.000000e+01,-7.818315e+00
  114136, 6.234898e+00,-3.250000e+01,-7.818315e+00
  114137, 6.234898e+00,-3.500000e+01,-7.818315e+00
  114138, 6.234898e+00,-3.750000e+01,-7.818315e+00
  114139, 6.234898e+00,-4.000000e+01,-7.818315e+00
  114140, 6.234898e+00,-4.250000e+01,-7.818315e+00
  114141, 6.234898e+00,-4.500000e+01,-7.818315e+00
  114142, 6.234898e+00,-4.750000e+01,-7.818315e+00
  114143, 6.234898e+00,-5.000000e+01,-7.818315e+00
  114144, 6.234898e+00,-5.250000e+01,-7.818315e+00
  114145, 6.234898e+00,-5.500000e+01,-7.818315e+00
  114146, 6.234898e+00,-5.750000e+01,-7.818315e+00
  114147, 6.234898e+00,-6.000000e+01,-7.818315e+00
  114148, 6.234898e+00,-6.250000e+01,-7.818315e+00
  114149, 6.234898e+00,-6.500000e+01,-7.818315e+00
  114150, 6.234898e+00,-6.750000e+01,-7.818315e+00
  114151, 6.234898e+00,-7.000000e+01,-7.818315e+00
  114152, 6.234898e+00,-7.250000e+01,-7.818315e+00
  114153, 6.234898e+00,-7.500000e+01,-7.818315e+00
  114154, 6.234898e+00,-7.750000e+01,-7.818315e+00
  114155, 7.818315e+00,-2.500000e+00,-6.234898e+00
  114156, 7.818315e+00,-5.000000e+00,-6.234898e+00
  114157, 7.818315e+00,-7.500000e+00,-6.234898e+00
  114158, 7.818315e+00,-1.000000e+01,-6.234898e+00
  114159, 7.818315e+00,-1.250000e+01,-6.234898e+00
  114160, 7.818315e+00,-1.500000e+01,-6.234898e+00
  114161, 7.818315e+00,-1.750000e+01,-6.234898e+00
  114162, 7.818315e+00,-2.000000e+01,-6.234898e+00
  114163, 7.818315e+00,-2.250000e+01,-6.234898e+00
  114164, 7.818315e+00,-2.500000e+01,-6.234898e+00
  114165, 7.818315e+00,-2.750000e+01,-6.234898e+00
  114166, 7.818315e+00,-3.000000e+01,-6.234898e+00
  114167, 7.818315e+00,-3.250000e+01,-6.234898e+00
  114168, 7.818315e+00,-3.500000e+01,-6.234898e+00
  114169, 7.818315e+00,-3.750000e+01,-6.234898e+00
  114170, 7.818315e+00,-4.000000e+01,-6.234898e+00
  114171, 7.818315e+00,-4.250000e+01,-6.234898e+00
  114172, 7.818315e+00,-4.500000e+01,-6.234898e+00
  114173, 7.818315e+00,-4.750000e+01,-6.234898e+00
  114174, 7.818315e+00,-5.000000e+01,-6.234898e+00
  114175, 7.818315e+00,-5.250000e+01,-6.234898e+00
  114176, 7.818315e+00,-5.500000e+01,-6.234898e+00
  114177, 7.818315e+00,-5.750000e+01,-6.234898e+00
  114178, 7.818315e+00,-6.000000e+01,-6.234898e+00
  114179, 7.818315e+00,-6.250000e+01,-6.234898e+00
  114180, 7.818315e+00,-6.500000e+01,-6.234898e+00
  114181, 7.818315e+00,-6.750000e+01,-6.234898e+00
  114182, 7.818315e+00,-7.000000e+01,-6.234898e+00
  114183, 7.818315e+00,-7.250000e+01,-6.234898e+00
  114184, 7.818315e+00,-7.500000e+01,-6.234898e+00
  114185, 7.818315e+00,-7.750000e+01,-6.234898e+00
  114186, 9.009689e+00,-2.500000e+00,-4.338837e+00
  114187, 9.009689e+00,-5.000000e+00,-4.338837e+00
  114188, 9.009689e+00,-7.500000e+00,-4.338837e+00
  114189, 9.009689e+00,-1.000000e+01,-4.338837e+00
  114190, 9.009689e+00,-1.250000e+01,-4.338837e+00
  114191, 9.009689e+00,-1.500000e+01,-4.338837e+00
  114192, 9.009689e+00,-1.750000e+01,-4.338837e+00
  114193, 9.009689e+00,-2.000000e+01,-4.338837e+00
  114194, 9.009689e+00,-2.250000e+01,-4.338837e+00
  114195, 9.009689e+00,-2.500000e+01,-4.338837e+00
  114196, 9.009689e+00,-2.750000e+01,-4.338837e+00
  114197, 9.009689e+00,-3.000000e+01,-4.338837e+00
  114198, 9.009689e+00,-3.250000e+01,-4.338837e+00
  114199, 9.009689e+00,-3.500000e+01,-4.338837e+00
  114200, 9.009689e+00,-3.750000e+01,-4.338837e+00
  114201, 9.009689e+00,-4.000000e+01,-4.338837e+00
  114202, 9.009689e+00,-4.250000e+01,-4.338837e+00
  114203, 9.009689e+00,-4.500000e+01,-4.338837e+00
  114204, 9.009689e+00,-4.750000e+01,-4.338837e+00
  114205, 9.009689e+00,-5.000000e+01,-4.338837e+00
  114206, 9.009689e+00,-5.250000e+01,-4.338837e+00
  114207, 9.009689e+00,-5.500000e+01,-4.338837e+00
  114208, 9.009689e+00,-5.750000e+01,-4.338837e+00
  114209, 9.009689e+00,-6.000000e+01,-4.338837e+00
  114210, 9.009689e+00,-6.250000e+01,-4.338837e+00
  114211, 9.009689e+00,-6.500000e+01,-4.338837e+00
  114212, 9.009689e+00,-6.750000e+01,-4.338837e+00
  114213, 9.009689e+00,-7.000000e+01,-4.338837e+00
  114214, 9.009689e+00,-7.250000e+01,-4.338837e+00
  114215, 9.009689e+00,-7.500000e+01,-4.338837e+00
  114216, 9.009689e+00,-7.750000e+01,-4.338837e+00
  114217, 9.749279e+00,-2.500000e+00,-2.225209e+00
  114218, 9.749279e+00,-5.000000e+00,-2.225209e+00
  114219, 9.749279e+00,-7.500000e+00,-2.225209e+00
  114220, 9.749279e+00,-1.000000e+01,-2.225209e+00
  114221, 9.749279e+00,-1.250000e+01,-2.225209e+00
  114222, 9.749279e+00,-1.500000e+01,-2.225209e+00
  114223, 9.749279e+00,-1.750000e+01,-2.225209e+00
  114224, 9.749279e+00,-2.000000e+01,-2.225209e+00
  114225, 9.749279e+00,-2.250000e+01,-2.225209e+00
  114226, 9.749279e+00,-2.500000e+01,-2.225209e+00
  114227, 9.749279e+00,-2.750000e+01,-2.225209e+00
  114228, 9.749279e+00,-3.000000e+01,-2.225209e+00
  114229, 9.749279e+00,-3.250000e+01,-2.225209e+00
  114230, 9.749279e+00,-3.500000e+01,-2.225209e+00
  114231, 9.749279e+00,-3.750000e+01,-2.225209e+00
  114232, 9.749279e+00,-4.000000e+01,-2.225209e+00
  114233, 9.749279e+00,-4.250000e+01,-2.225209e+00
  114234, 9.749279e+00,-4.500000e+01,-2.225209e+00
  114235, 9.749279e+00,-4.750000e+01,-2.225209e+00
  114236, 9.749279e+00,-5.000000e+01,-2.225209e+00
  114237, 9.749279e+00,-5.250000e+01,-2.225209e+00
  114238, 9.749279e+00,-5.500000e+01,-2.225209e+00
  114239, 9.749279e+00,-5.750000e+01,-2.225209e+00
  114240, 9.749279e+00,-6.000000e+01,-2.225209e+00
  114241, 9.749279e+00,-6.250000e+01,-2.225209e+00
  114242, 9.749279e+00,-6.500000e+01,-2.225209e+00
  114243, 9.749279e+00,-6.750000e+01,-2.225209e+00
  114244, 9.749279e+00,-7.000000e+01,-2.225209e+00
  114245, 9.749279e+00,-7.250000e+01,-2.225209e+00
  114246, 9.749279e+00,-7.500000e+01,-2.225209e+00
  114247, 9.749279e+00,-7.750000e+01,-2.225209e+00
  116558, 0.000000e+00,6.666670e+00,-1.050000e+01
  116559, 0.000000e+00,6.666670e+00,-1.616667e+01
  116560, 0.000000e+00,6.666670e+00,-1.333333e+01
  116561, 0.000000e+00,0.000000e+00,-1.050000e+01
  116562, 0.000000e+00,0.000000e+00,-1.333333e+01
  116563, 0.000000e+00,0.000000e+00,-1.616667e+01
  116564, 0.000000e+00,3.333335e+00,-1.050000e+01
  116565, 0.000000e+00,3.333335e+00,-1.333333e+01
  116566, 0.000000e+00,3.333335e+00,-1.616667e+01
  116567, 1.050000e+01,0.000000e+00,0.000000e+00
  116568, 1.333333e+01,0.000000e+00,0.000000e+00
  116569, 1.616667e+01,0.000000e+00,0.000000e+00
  116570, 1.029825e+01,0.000000e+00,-2.048448e+00
  116571, 9.700735e+00,0.000000e+00,-4.018176e+00
  116572, 8.730431e+00,0.000000e+00,-5.833487e+00
  116573, 7.424621e+00,0.000000e+00,-7.424621e+00
  116574, 5.833487e+00,0.000000e+00,-8.730431e+00
  116575, 4.018176e+00,0.000000e+00,-9.700735e+00
  116576, 2.048448e+00,0.000000e+00,-1.029825e+01
  116577, 2.601204e+00,0.000000e+00,-1.307714e+01
  116578, 3.153960e+00,0.000000e+00,-1.585603e+01
  116579, 5.102446e+00,0.000000e+00,-1.231839e+01
  116580, 6.186715e+00,0.000000e+00,-1.493605e+01
  116581, 7.407603e+00,0.000000e+00,-1.108626e+01
  116582, 8.981719e+00,0.000000e+00,-1.344209e+01
  116583, 9.428090e+00,0.000000e+00,-9.428090e+00
  116584, 1.143156e+01,0.000000e+00,-1.143156e+01
  116585, 1.108626e+01,0.000000e+00,-7.407603e+00
  116586, 1.344209e+01,0.000000e+00,-8.981719e+00
  116587, 1.231839e+01,0.000000e+00,-5.102446e+00
  116588, 1.493605e+01,0.000000e+00,-6.186715e+00
  116589, 1.307714e+01,0.000000e+00,-2.601204e+00
  116590, 1.585603e+01,0.000000e+00,-3.153960e+00
  116591, 1.050000e+01,6.666670e+00,0.000000e+00
  116592, 1.616667e+01,6.666670e+00,0.000000e+00
  116593, 1.333333e+01,6.666670e+00,0.000000e+00
  116594, 1.050000e+01,3.333335e+00,0.000000e+00
  116595, 1.616667e+01,3.333335e+00,0.000000e+00
  116596, 1.333333e+01,3.333335e+00,0.000000e+00
  116597, 1.029825e+01,6.666670e+00,-2.048448e+00
  116598, 9.700735e+00,6.666670e+00,-4.018176e+00
  116599, 8.730431e+00,6.666670e+00,-5.833487e+00
  116600, 7.424621e+00,6.666670e+00,-7.424621e+00
  116601, 5.833487e+00,6.666670e+00,-8.730431e+00
  116602, 4.018176e+00,6.666670e+00,-9.700735e+00
  116603, 2.048448e+00,6.666670e+00,-1.029825e+01
  116604, 3.153960e+00,6.666670e+00,-1.585603e+01
  116605, 2.601204e+00,6.666670e+00,-1.307714e+01
  116606, 6.186715e+00,6.666670e+00,-1.493605e+01
  116607, 5.102446e+00,6.666670e+00,-1.231839e+01
  116608, 8.981719e+00,6.666670e+00,-1.344209e+01
  116609, 7.407603e+00,6.666670e+00,-1.108626e+01
  116610, 1.143156e+01,6.666670e+00,-1.143156e+01
  116611, 9.428090e+00,6.666670e+00,-9.428090e+00
  116612, 1.344209e+01,6.666670e+00,-8.981719e+00
  116613, 1.108626e+01,6.666670e+00,-7.407603e+00
  116614, 1.493605e+01,6.666670e+00,-6.186715e+00
  116615, 1.231839e+01,6.666670e+00,-5.102446e+00
  116616, 1.585603e+01,6.666670e+00,-3.153960e+00
  116617, 1.307714e+01,6.666670e+00,-2.601204e+00
  116618, 2.048448e+00,3.333335e+00,-1.029825e+01
  116619, 4.018176e+00,3.333335e+00,-9.700735e+00
  116620, 5.833487e+00,3.333335e+00,-8.730431e+00
  116621, 7.424621e+00,3.333335e+00,-7.424621e+00
  116622, 8.730431e+00,3.333335e+00,-5.833487e+00
  116623, 9.700735e+00,3.333335e+00,-4.018176e+00
  116624, 1.029825e+01,3.333335e+00,-2.048448e+00
  116625, 3.153960e+00,3.333335e+00,-1.585603e+01
  116626, 2.601204e+00,3.333335e+00,-1.307714e+01
  116627, 6.186715e+00,3.333335e+00,-1.493605e+01
  116628, 5.102446e+00,3.333335e+00,-1.231839e+01
  116629, 8.981719e+00,3.333335e+00,-1.344209e+01
  116630, 7.407603e+00,3.333335e+00,-1.108626e+01
  116631, 1.143156e+01,3.333335e+00,-1.143156e+01
  116632, 9.428090e+00,3.333335e+00,-9.428090e+00
  116633, 1.344209e+01,3.333335e+00,-8.981719e+00
  116634, 1.108626e+01,3.333335e+00,-7.407603e+00
  116635, 1.493605e+01,3.333335e+00,-6.186715e+00
  116636, 1.231839e+01,3.333335e+00,-5.102446e+00
  116637, 1.585603e+01,3.333335e+00,-3.153960e+00
  116638, 1.307714e+01,3.333335e+00,-2.601204e+00
  116639, 0.000000e+00,2.000000e+01,-1.050000e+01
  116640, 0.000000e+00,2.000000e+01,-1.616667e+01
  116641, 0.000000e+00,2.000000e+01,-1.333333e+01
  116642, 0.000000e+00,1.666667e+01,-1.050000e+01
  116643, 0.000000e+00,1.333333e+01,-1.050000e+01
  116644, 0.000000e+00,1.000000e+01,-1.050000e+01
  116645, 0.000000e+00,1.666667e+01,-1.333333e+01
  116646, 0.000000e+00,1.666667e+01,-1.616667e+01
  116647, 0.000000e+00,1.333333e+01,-1.333333e+01
  116648, 0.000000e+00,1.333333e+01,-1.616667e+01
  116649, 0.000000e+00,1.000000e+01,-1.333333e+01
  116650, 0.000000e+00,1.000000e+01,-1.616667e+01
  116651, 1.050000e+01,2.000000e+01,0.000000e+00
  116652, 1.616667e+01,2.000000e+01,0.000000e+00
  116653, 1.333333e+01,2.000000e+01,0.000000e+00
  116654, 1.050000e+01,1.666667e+01,-4.082157e-16
  116655, 1.050000e+01,1.333333e+01,-2.041079e-16
  116656, 1.050000e+01,1.000000e+01,-1.530808e-22
  116657, 1.616667e+01,1.000000e+01,0.000000e+00
  116658, 1.616667e+01,1.333334e+01,0.000000e+00
  116659, 1.616667e+01,1.666667e+01,0.000000e+00
  116660, 1.333333e+01,1.000000e+01,0.000000e+00
  116661, 1.333333e+01,1.333333e+01,0.000000e+00
  116662, 1.333333e+01,1.666667e+01,0.000000e+00
  116663, 2.048448e+00,2.000000e+01,-1.029825e+01
  116664, 4.018176e+00,2.000000e+01,-9.700735e+00
  116665, 5.833487e+00,2.000000e+01,-8.730431e+00
  116666, 7.424621e+00,2.000000e+01,-7.424621e+00
  116667, 8.730431e+00,2.000000e+01,-5.833487e+00
  116668, 9.700735e+00,2.000000e+01,-4.018176e+00
  116669, 1.029825e+01,2.000000e+01,-2.048448e+00
  116670, 3.153960e+00,2.000000e+01,-1.585603e+01
  116671, 2.601204e+00,2.000000e+01,-1.307714e+01
  116672, 6.186715e+00,2.000000e+01,-1.493605e+01
  116673, 5.102446e+00,2.000000e+01,-1.231839e+01
  116674, 8.981719e+00,2.000000e+01,-1.344209e+01
  116675, 7.407603e+00,2.000000e+01,-1.108626e+01
  116676, 1.143156e+01,2.000000e+01,-1.143156e+01
  116677, 9.428090e+00,2.000000e+01,-9.428090e+00
  116678, 1.344209e+01,2.000000e+01,-8.981719e+00
  116679, 1.108626e+01,2.000000e+01,-7.407603e+00
  116680, 1.493605e+01,2.000000e+01,-6.186715e+00
  116681, 1.231839e+01,2.000000e+01,-5.102446e+00
  116682, 1.585603e+01,2.000000e+01,-3.153960e+00
  116683, 1.307714e+01,2.000000e+01,-2.601204e+00
  116684, 2.048448e+00,1.666667e+01,-1.029825e+01
  116685, 2.048448e+00,1.333333e+01,-1.029825e+01
  116686, 2.048448e+00,1.000000e+01,-1.029825e+01
  116687, 4.018176e+00,1.666667e+01,-9.700735e+00
  116688, 4.018176e+00,1.333334e+01,-9.700735e+00
  116689, 4.018176e+00,1.000000e+01,-9.700735e+00
  116690, 5.833487e+00,1.666667e+01,-8.730431e+00
  116691, 5.833487e+00,1.333333e+01,-8.730431e+00
  116692, 5.833487e+00,1.000000e+01,-8.730431e+00
  116693, 7.424621e+00,1.666667e+01,-7.424621e+00
  116694, 7.424621e+00,1.333333e+01,-7.424621e+00
  116695, 7.424621e+00,1.000000e+01,-7.424621e+00
  116696, 8.730431e+00,1.666667e+01,-5.833487e+00
  116697, 8.730431e+00,1.333334e+01,-5.833487e+00
  116698, 8.730431e+00,1.000000e+01,-5.833487e+00
  116699, 9.700735e+00,1.666667e+01,-4.018176e+00
  116700, 9.700735e+00,1.333333e+01,-4.018176e+00
  116701, 9.700735e+00,1.000000e+01,-4.018176e+00
  116702, 1.029825e+01,1.666667e+01,-2.048448e+00
  116703, 1.029825e+01,1.333333e+01,-2.048448e+00
  116704, 1.029825e+01,1.000000e+01,-2.048448e+00
  116705, 2.601204e+00,1.666667e+01,-1.307714e+01
  116706, 5.102446e+00,1.666667e+01,-1.231839e+01
  116707, 7.407603e+00,1.666667e+01,-1.108626e+01
  116708, 9.428090e+00,1.666667e+01,-9.428090e+00
  116709, 1.108626e+01,1.666667e+01,-7.407603e+00
  116710, 1.231839e+01,1.666667e+01,-5.102446e+00
  116711, 1.307714e+01,1.666667e+01,-2.601204e+00
  116712, 2.601204e+00,1.333333e+01,-1.307714e+01
  116713, 5.102446e+00,1.333334e+01,-1.231839e+01
  116714, 7.407603e+00,1.333334e+01,-1.108626e+01
  116715, 9.428090e+00,1.333333e+01,-9.428090e+00
  116716, 1.108626e+01,1.333333e+01,-7.407603e+00
  116717, 1.231839e+01,1.333333e+01,-5.102446e+00
  116718, 1.307714e+01,1.333333e+01,-2.601204e+00
  116719, 2.601204e+00,1.000000e+01,-1.307714e+01
  116720, 5.102446e+00,1.000000e+01,-1.231839e+01
  116721, 7.407603e+00,1.000000e+01,-1.108626e+01
  116722, 9.428090e+00,1.000000e+01,-9.428090e+00
  116723, 1.108626e+01,1.000000e+01,-7.407603e+00
  116724, 1.231839e+01,1.000000e+01,-5.102446e+00
  116725, 1.307714e+01,1.000000e+01,-2.601204e+00
  116726, 3.153960e+00,1.666667e+01,-1.585603e+01
  116727, 6.186715e+00,1.666667e+01,-1.493605e+01
  116728, 8.981719e+00,1.666667e+01,-1.344209e+01
  116729, 1.143156e+01,1.666667e+01,-1.143156e+01
  116730, 1.344209e+01,1.666667e+01,-8.981719e+00
  116731, 1.493605e+01,1.666667e+01,-6.186715e+00
  116732, 1.585603e+01,1.666667e+01,-3.153960e+00
  116733, 3.153960e+00,1.333333e+01,-1.585603e+01
  116734, 6.186715e+00,1.333333e+01,-1.493605e+01
  116735, 8.981719e+00,1.333333e+01,-1.344209e+01
  116736, 1.143156e+01,1.333333e+01,-1.143156e+01
  116737, 1.344209e+01,1.333333e+01,-8.981719e+00
  116738, 1.493605e+01,1.333333e+01,-6.186715e+00
  116739, 1.585603e+01,1.333334e+01,-3.153960e+00
  116740, 3.153960e+00,1.000000e+01,-1.585603e+01
  116741, 6.186715e+00,1.000000e+01,-1.493605e+01
  116742, 8.981719e+00,1.000000e+01,-1.344209e+01
  116743, 1.143156e+01,1.000000e+01,-1.143156e+01
  116744, 1.344209e+01,1.000000e+01,-8.981719e+00
  116745, 1.493605e+01,1.000000e+01,-6.186715e+00
  116746, 1.585603e+01,1.000000e+01,-3.153960e+00
  116747, -1.000000e+01,1.499760e-31,0.000000e+00
  116748, -9.749279e+00,-1.362548e-16,-2.225209e+00
  116749, -9.009689e+00,-2.656772e-16,-4.338837e+00
  116750, -7.818315e+00,-3.817774e-16,-6.234898e+00
  116751, -6.234898e+00,-4.787337e-16,-7.818315e+00
  116752, -4.338837e+00,-5.516843e-16,-9.009689e+00
  116753, -2.225209e+00,-5.969712e-16,-9.749279e+00
  116754, -1.000000e+01,-8.000000e+01,0.000000e+00
  116755, -1.000000e+01,-7.750000e+01,2.296213e-15
  116756, -1.000000e+01,-7.500000e+01,2.143132e-15
  116757, -1.000000e+01,-7.250000e+01,1.990051e-15
  116758, -1.000000e+01,-7.000000e+01,1.836970e-15
  116759, -1.000000e+01,-6.750000e+01,1.683889e-15
  116760, -1.000000e+01,-6.500000e+01,1.530808e-15
  116761, -1.000000e+01,-6.250000e+01,1.377728e-15
  116762, -1.000000e+01,-6.000000e+01,1.224647e-15
  116763, -1.000000e+01,-5.750000e+01,1.071566e-15
  116764, -1.000000e+01,-5.500000e+01,9.184851e-16
  116765, -1.000000e+01,-5.250000e+01,7.654042e-16
  116766, -1.000000e+01,-5.000000e+01,6.123234e-16
  116767, -1.000000e+01,-4.750000e+01,4.592425e-16
  116768, -1.000000e+01,-4.500000e+01,3.061617e-16
  116769, -1.000000e+01,-4.250000e+01,1.530808e-16
  116770, -1.000000e+01,-4.000000e+01,0.000000e+00
  116771, -1.000000e+01,-3.750000e+01,-1.530808e-16
  116772, -1.000000e+01,-3.500000e+01,-3.061617e-16
  116773, -1.000000e+01,-3.250000e+01,-4.592425e-16
  116774, -1.000000e+01,-3.000000e+01,-6.123234e-16
  116775, -1.000000e+01,-2.750000e+01,-7.654042e-16
  116776, -1.000000e+01,-2.500000e+01,-9.184851e-16
  116777, -1.000000e+01,-2.250000e+01,-1.071566e-15
  116778, -1.000000e+01,-2.000000e+01,-1.224647e-15
  116779, -1.000000e+01,-1.750000e+01,-1.377728e-15
  116780, -1.000000e+01,-1.500000e+01,-1.530808e-15
  116781, -1.000000e+01,-1.250000e+01,-1.683889e-15
  116782, -1.000000e+01,-1.000000e+01,-1.836970e-15
  116783, -1.000000e+01,-7.500000e+00,-1.990051e-15
  116784, -1.000000e+01,-5.000000e+00,-2.143132e-15
  116785, -1.000000e+01,-2.500000e+00,-2.296213e-15
  116786, -2.225209e+00,-8.000000e+01,-9.749279e+00
  116787, -4.338837e+00,-8.000000e+01,-9.009689e+00
  116788, -6.234898e+00,-8.000000e+01,-7.818315e+00
  116789, -7.818315e+00,-8.000000e+01,-6.234898e+00
  116790, -9.009689e+00,-8.000000e+01,-4.338837e+00
  116791, -9.749279e+00,-8.000000e+01,-2.225209e+00
  116792, -2.225209e+00,-7.750000e+01,-9.749279e+00
  116793, -2.225209e+00,-7.500000e+01,-9.749279e+00
  116794, -2.225209e+00,-7.250000e+01,-9.749279e+00
  116795, -2.225209e+00,-7.000000e+01,-9.749279e+00
  116796, -2.225209e+00,-6.750000e+01,-9.749279e+00
  116797, -2.225209e+00,-6.500000e+01,-9.749279e+00
  116798, -2.225209e+00,-6.250000e+01,-9.749279e+00
  116799, -2.225209e+00,-6.000000e+01,-9.749279e+00
  116800, -2.225209e+00,-5.750000e+01,-9.749279e+00
  116801, -2.225209e+00,-5.500000e+01,-9.749279e+00
  116802, -2.225209e+00,-5.250000e+01,-9.749279e+00
  116803, -2.225209e+00,-5.000000e+01,-9.749279e+00
  116804, -2.225209e+00,-4.750000e+01,-9.749279e+00
  116805, -2.225209e+00,-4.500000e+01,-9.749279e+00
  116806, -2.225209e+00,-4.250000e+01,-9.749279e+00
  116807, -2.225209e+00,-4.000000e+01,-9.749279e+00
  116808, -2.225209e+00,-3.750000e+01,-9.749279e+00
  116809, -2.225209e+00,-3.500000e+01,-9.749279e+00
  116810, -2.225209e+00,-3.250000e+01,-9.749279e+00
  116811, -2.225209e+00,-3.000000e+01,-9.749279e+00
  116812, -2.225209e+00,-2.750000e+01,-9.749279e+00
  116813, -2.225209e+00,-2.500000e+01,-9.749279e+00
  116814, -2.225209e+00,-2.250000e+01,-9.749279e+00
  116815, -2.225209e+00,-2.000000e+01,-9.749279e+00
  116816, -2.225209e+00,-1.750000e+01,-9.749279e+00
  116817, -2.225209e+00,-1.500000e+01,-9.749279e+00
  116818, -2.225209e+00,-1.250000e+01,-9.749279e+00
  116819, -2.225209e+00,-1.000000e+01,-9.749279e+00
  116820, -2.225209e+00,-7.500000e+00,-9.749279e+00
  116821, -2.225209e+00,-5.000000e+00,-9.749279e+00
  116822, -2.225209e+00,-2.500000e+00,-9.749279e+00
  116823, -4.338837e+00,-7.750000e+01,-9.009689e+00
  116824, -4.338837e+00,-7.500000e+01,-9.009689e+00
  116825, -4.338837e+00,-7.250000e+01,-9.009689e+00
  116826, -4.338837e+00,-7.000000e+01,-9.009689e+00
  116827, -4.338837e+00,-6.750000e+01,-9.009689e+00
  116828, -4.338837e+00,-6.500000e+01,-9.009689e+00
  116829, -4.338837e+00,-6.250000e+01,-9.009689e+00
  116830, -4.338837e+00,-6.000000e+01,-9.009689e+00
  116831, -4.338837e+00,-5.750000e+01,-9.009689e+00
  116832, -4.338837e+00,-5.500000e+01,-9.009689e+00
  116833, -4.338837e+00,-5.250000e+01,-9.009689e+00
  116834, -4.338837e+00,-5.000000e+01,-9.009689e+00
  116835, -4.338837e+00,-4.750000e+01,-9.009689e+00
  116836, -4.338837e+00,-4.500000e+01,-9.009689e+00
  116837, -4.338837e+00,-4.250000e+01,-9.009689e+00
  116838, -4.338837e+00,-4.000000e+01,-9.009689e+00
  116839, -4.338837e+00,-3.750000e+01,-9.009689e+00
  116840, -4.338837e+00,-3.500000e+01,-9.009689e+00
  116841, -4.338837e+00,-3.250000e+01,-9.009689e+00
  116842, -4.338837e+00,-3.000000e+01,-9.009689e+00
  116843, -4.338837e+00,-2.750000e+01,-9.009689e+00
  116844, -4.338837e+00,-2.500000e+01,-9.009689e+00
  116845, -4.338837e+00,-2.250000e+01,-9.009689e+00
  116846, -4.338837e+00,-2.000000e+01,-9.009689e+00
  116847, -4.338837e+00,-1.750000e+01,-9.009689e+00
  116848, -4.338837e+00,-1.500000e+01,-9.009689e+00
  116849, -4.338837e+00,-1.250000e+01,-9.009689e+00
  116850, -4.338837e+00,-1.000000e+01,-9.009689e+00
  116851, -4.338837e+00,-7.500000e+00,-9.009689e+00
  116852, -4.338837e+00,-5.000000e+00,-9.009689e+00
  116853, -4.338837e+00,-2.500000e+00,-9.009689e+00
  116854, -6.234898e+00,-7.750000e+01,-7.818315e+00
  116855, -6.234898e+00,-7.500000e+01,-7.818315e+00
  116856, -6.234898e+00,-7.250000e+01,-7.818315e+00
  116857, -6.234898e+00,-7.000000e+01,-7.818315e+00
  116858, -6.234898e+00,-6.750000e+01,-7.818315e+00
  116859, -6.234898e+00,-6.500000e+01,-7.818315e+00
  116860, -6.234898e+00,-6.250000e+01,-7.818315e+00
  116861, -6.234898e+00,-6.000000e+01,-7.818315e+00
  116862, -6.234898e+00,-5.750000e+01,-7.818315e+00
  116863, -6.234898e+00,-5.500000e+01,-7.818315e+00
  116864, -6.234898e+00,-5.250000e+01,-7.818315e+00
  116865, -6.234898e+00,-5.000000e+01,-7.818315e+00
  116866, -6.234898e+00,-4.750000e+01,-7.818315e+00
  116867, -6.234898e+00,-4.500000e+01,-7.818315e+00
  116868, -6.234898e+00,-4.250000e+01,-7.818315e+00
  116869, -6.234898e+00,-4.000000e+01,-7.818315e+00
  116870, -6.234898e+00,-3.750000e+01,-7.818315e+00
  116871, -6.234898e+00,-3.500000e+01,-7.818315e+00
  116872, -6.234898e+00,-3.250000e+01,-7.818315e+00
  116873, -6.234898e+00,-3.000000e+01,-7.818315e+00
  116874, -6.234898e+00,-2.750000e+01,-7.818315e+00
  116875, -6.234898e+00,-2.500000e+01,-7.818315e+00
  116876, -6.234898e+00,-2.250000e+01,-7.818315e+00
  116877, -6.234898e+00,-2.000000e+01,-7.818315e+00
  116878, -6.234898e+00,-1.750000e+01,-7.818315e+00
  116879, -6.234898e+00,-1.500000e+01,-7.818315e+00
  116880, -6.234898e+00,-1.250000e+01,-7.818315e+00
  116881, -6.234898e+00,-1.000000e+01,-7.818315e+00
  116882, -6.234898e+00,-7.500000e+00,-7.818315e+00
  116883, -6.234898e+00,-5.000000e+00,-7.818315e+00
  116884, -6.234898e+00,-2.500000e+00,-7.818315e+00
  116885, -7.818315e+00,-7.750000e+01,-6.234898e+00
  116886, -7.818315e+00,-7.500000e+01,-6.234898e+00
  116887, -7.818315e+00,-7.250000e+01,-6.234898e+00
  116888, -7.818315e+00,-7.000000e+01,-6.234898e+00
  116889, -7.818315e+00,-6.750000e+01,-6.234898e+00
  116890, -7.818315e+00,-6.500000e+01,-6.234898e+00
  116891, -7.818315e+00,-6.250000e+01,-6.234898e+00
  116892, -7.818315e+00,-6.000000e+01,-6.234898e+00
  116893, -7.818315e+00,-5.750000e+01,-6.234898e+00
  116894, -7.818315e+00,-5.500000e+01,-6.234898e+00
  116895, -7.818315e+00,-5.250000e+01,-6.234898e+00
  116896, -7.818315e+00,-5.000000e+01,-6.234898e+00
  116897, -7.818315e+00,-4.750000e+01,-6.234898e+00
  116898, -7.818315e+00,-4.500000e+01,-6.234898e+00
  116899, -7.818315e+00,-4.250000e+01,-6.234898e+00
  116900, -7.818315e+00,-4.000000e+01,-6.234898e+00
  116901, -7.818315e+00,-3.750000e+01,-6.234898e+00
  116902, -7.818315e+00,-3.500000e+01,-6.234898e+00
  116903, -7.818315e+00,-3.250000e+01,-6.234898e+00
  116904, -7.818315e+00,-3.000000e+01,-6.234898e+00
  116905, -7.818315e+00,-2.750000e+01,-6.234898e+00
  116906, -7.818315e+00,-2.500000e+01,-6.234898e+00
  116907, -7.818315e+00,-2.250000e+01,-6.234898e+00
  116908, -7.818315e+00,-2.000000e+01,-6.234898e+00
  116909, -7.818315e+00,-1.750000e+01,-6.234898e+00
  116910, -7.818315e+00,-1.500000e+01,-6.234898e+00
  116911, -7.818315e+00,-1.250000e+01,-6.234898e+00
  116912, -7.818315e+00,-1.000000e+01,-6.234898e+00
  116913, -7.818315e+00,-7.500000e+00,-6.234898e+00
  116914, -7.818315e+00,-5.000000e+00,-6.234898e+00
  116915, -7.818315e+00,-2.500000e+00,-6.234898e+00
  116916, -9.009689e+00,-7.750000e+01,-4.338837e+00
  116917, -9.009689e+00,-7.500000e+01,-4.338837e+00
  116918, -9.009689e+00,-7.250000e+01,-4.338837e+00
  116919, -9.009689e+00,-7.000000e+01,-4.338837e+00
  116920, -9.009689e+00,-6.750000e+01,-4.338837e+00
  116921, -9.009689e+00,-6.500000e+01,-4.338837e+00
  116922, -9.009689e+00,-6.250000e+01,-4.338837e+00
  116923, -9.009689e+00,-6.000000e+01,-4.338837e+00
  116924, -9.009689e+00,-5.750000e+01,-4.338837e+00
  116925, -9.009689e+00,-5.500000e+01,-4.338837e+00
  116926, -9.009689e+00,-5.250000e+01,-4.338837e+00
  116927, -9.009689e+00,-5.000000e+01,-4.338837e+00
  116928, -9.009689e+00,-4.750000e+01,-4.338837e+00
  116929, -9.009689e+00,-4.500000e+01,-4.338837e+00
  116930, -9.009689e+00,-4.250000e+01,-4.338837e+00
  116931, -9.009689e+00,-4.000000e+01,-4.338837e+00
  116932, -9.009689e+00,-3.750000e+01,-4.338837e+00
  116933, -9.009689e+00,-3.500000e+01,-4.338837e+00
  116934, -9.009689e+00,-3.250000e+01,-4.338837e+00
  116935, -9.009689e+00,-3.000000e+01,-4.338837e+00
  116936, -9.009689e+00,-2.750000e+01,-4.338837e+00
  116937, -9.009689e+00,-2.500000e+01,-4.338837e+00
  116938, -9.009689e+00,-2.250000e+01,-4.338837e+00
  116939, -9.009689e+00,-2.000000e+01,-4.338837e+00
  116940, -9.009689e+00,-1.750000e+01,-4.338837e+00
  116941, -9.009689e+00,-1.500000e+01,-4.338837e+00
  116942, -9.009689e+00,-1.250000e+01,-4.338837e+00
  116943, -9.009689e+00,-1.000000e+01,-4.338837e+00
  116944, -9.009689e+00,-7.500000e+00,-4.338837e+00
  116945, -9.009689e+00,-5.000000e+00,-4.338837e+00
  116946, -9.009689e+00,-2.500000e+00,-4.338837e+00
  116947, -9.749279e+00,-7.750000e+01,-2.225209e+00
  116948, -9.749279e+00,-7.500000e+01,-2.225209e+00
  116949, -9.749279e+00,-7.250000e+01,-2.225209e+00
  116950, -9.749279e+00,-7.000000e+01,-2.225209e+00
  116951, -9.749279e+00,-6.750000e+01,-2.225209e+00
  116952, -9.749279e+00,-6.500000e+01,-2.225209e+00
  116953, -9.749279e+00,-6.250000e+01,-2.225209e+00
  116954, -9.749279e+00,-6.000000e+01,-2.225209e+00
  116955, -9.749279e+00,-5.750000e+01,-2.225209e+00
  116956, -9.749279e+00,-5.500000e+01,-2.225209e+00
  116957, -9.749279e+00,-5.250000e+01,-2.225209e+00
  116958, -9.749279e+00,-5.000000e+01,-2.225209e+00
  116959, -9.749279e+00,-4.750000e+01,-2.225209e+00
  116960, -9.749279e+00,-4.500000e+01,-2.225209e+00
  116961, -9.749279e+00,-4.250000e+01,-2.225209e+00
  116962, -9.749279e+00,-4.000000e+01,-2.225209e+00
  116963, -9.749279e+00,-3.750000e+01,-2.225209e+00
  116964, -9.749279e+00,-3.500000e+01,-2.225209e+00
  116965, -9.749279e+00,-3.250000e+01,-2.225209e+00
  116966, -9.749279e+00,-3.000000e+01,-2.225209e+00
  116967, -9.749279e+00,-2.750000e+01,-2.225209e+00
  116968, -9.749279e+00,-2.500000e+01,-2.225209e+00
  116969, -9.749279e+00,-2.250000e+01,-2.225209e+00
  116970, -9.749279e+00,-2.000000e+01,-2.225209e+00
  116971, -9.749279e+00,-1.750000e+01,-2.225209e+00
  116972, -9.749279e+00,-1.500000e+01,-2.225209e+00
  116973, -9.749279e+00,-1.250000e+01,-2.225209e+00
  116974, -9.749279e+00,-1.000000e+01,-2.225209e+00
  116975, -9.749279e+00,-7.500000e+00,-2.225209e+00
  116976, -9.749279e+00,-5.000000e+00,-2.225209e+00
  116977, -9.749279e+00,-2.500000e+00,-2.225209e+00
  116978, -1.100000e+01,1.499760e-31,0.000000e+00
  116979, -2.447730e+00,-6.566683e-16,-1.072421e+01
  116980, -4.772721e+00,-6.068528e-16,-9.910658e+00
  116981, -6.858388e+00,-5.266071e-16,-8.600146e+00
  116982, -8.600146e+00,-4.199551e-16,-6.858388e+00
  116983, -9.910658e+00,-2.922449e-16,-4.772721e+00
  116984, -1.072421e+01,-1.498803e-16,-2.447730e+00
  116985, -1.100000e+01,-8.000000e+01,0.000000e+00
  116986, -1.100000e+01,-2.500000e+00,-2.296213e-15
  116987, -1.100000e+01,-5.000000e+00,-2.143132e-15
  116988, -1.100000e+01,-7.500000e+00,-1.990051e-15
  116989, -1.100000e+01,-1.000000e+01,-1.836970e-15
  116990, -1.100000e+01,-1.250000e+01,-1.683889e-15
  116991, -1.100000e+01,-1.500000e+01,-1.530808e-15
  116992, -1.100000e+01,-1.750000e+01,-1.377728e-15
  116993, -1.100000e+01,-2.000000e+01,-1.224647e-15
  116994, -1.100000e+01,-2.250000e+01,-1.071566e-15
  116995, -1.100000e+01,-2.500000e+01,-9.184851e-16
  116996, -1.100000e+01,-2.750000e+01,-7.654042e-16
  116997, -1.100000e+01,-3.000000e+01,-6.123234e-16
  116998, -1.100000e+01,-3.250000e+01,-4.592425e-16
  116999, -1.100000e+01,-3.500000e+01,-3.061617e-16
  117000, -1.100000e+01,-3.750000e+01,-1.530808e-16
  117001, -1.100000e+01,-4.000000e+01,0.000000e+00
  117002, -1.100000e+01,-4.250000e+01,1.530808e-16
  117003, -1.100000e+01,-4.500000e+01,3.061617e-16
  117004, -1.100000e+01,-4.750000e+01,4.592425e-16
  117005, -1.100000e+01,-5.000000e+01,6.123234e-16
  117006, -1.100000e+01,-5.250000e+01,7.654042e-16
  117007, -1.100000e+01,-5.500000e+01,9.184851e-16
  117008, -1.100000e+01,-5.750000e+01,1.071566e-15
  117009, -1.100000e+01,-6.000000e+01,1.224647e-15
  117010, -1.100000e+01,-6.250000e+01,1.377728e-15
  117011, -1.100000e+01,-6.500000e+01,1.530808e-15
  117012, -1.100000e+01,-6.750000e+01,1.683889e-15
  117013, -1.100000e+01,-7.000000e+01,1.836970e-15
  117014, -1.100000e+01,-7.250000e+01,1.990051e-15
  117015, -1.100000e+01,-7.500000e+01,2.143132e-15
  117016, -1.100000e+01,-7.750000e+01,2.296213e-15
  117017, -1.072421e+01,-8.000000e+01,-2.447730e+00
  117018, -9.910658e+00,-8.000000e+01,-4.772721e+00
  117019, -8.600146e+00,-8.000000e+01,-6.858388e+00
  117020, -6.858388e+00,-8.000000e+01,-8.600146e+00
  117021, -4.772721e+00,-8.000000e+01,-9.910658e+00
  117022, -2.447730e+00,-8.000000e+01,-1.072421e+01
  117023, -2.447730e+00,-2.500000e+00,-1.072421e+01
  117024, -2.447730e+00,-5.000000e+00,-1.072421e+01
  117025, -2.447730e+00,-7.500000e+00,-1.072421e+01
  117026, -2.447730e+00,-1.000000e+01,-1.072421e+01
  117027, -2.447730e+00,-1.250000e+01,-1.072421e+01
  117028, -2.447730e+00,-1.500000e+01,-1.072421e+01
  117029, -2.447730e+00,-1.750000e+01,-1.072421e+01
  117030, -2.447730e+00,-2.000000e+01,-1.072421e+01
  117031, -2.447730e+00,-2.250000e+01,-1.072421e+01
  117032, -2.447730e+00,-2.500000e+01,-1.072421e+01
  117033, -2.447730e+00,-2.750000e+01,-1.072421e+01
  117034, -2.447730e+00,-3.000000e+01,-1.072421e+01
  117035, -2.447730e+00,-3.250000e+01,-1.072421e+01
  117036, -2.447730e+00,-3.500000e+01,-1.072421e+01
  117037, -2.447730e+00,-3.750000e+01,-1.072421e+01
  117038, -2.447730e+00,-4.000000e+01,-1.072421e+01
  117039, -2.447730e+00,-4.250000e+01,-1.072421e+01
  117040, -2.447730e+00,-4.500000e+01,-1.072421e+01
  117041, -2.447730e+00,-4.750000e+01,-1.072421e+01
  117042, -2.447730e+00,-5.000000e+01,-1.072421e+01
  117043, -2.447730e+00,-5.250000e+01,-1.072421e+01
  117044, -2.447730e+00,-5.500000e+01,-1.072421e+01
  117045, -2.447730e+00,-5.750000e+01,-1.072421e+01
  117046, -2.447730e+00,-6.000000e+01,-1.072421e+01
  117047, -2.447730e+00,-6.250000e+01,-1.072421e+01
  117048, -2.447730e+00,-6.500000e+01,-1.072421e+01
  117049, -2.447730e+00,-6.750000e+01,-1.072421e+01
  117050, -2.447730e+00,-7.000000e+01,-1.072421e+01
  117051, -2.447730e+00,-7.250000e+01,-1.072421e+01
  117052, -2.447730e+00,-7.500000e+01,-1.072421e+01
  117053, -2.447730e+00,-7.750000e+01,-1.072421e+01
  117054, -4.772721e+00,-2.500000e+00,-9.910658e+00
  117055, -4.772721e+00,-5.000000e+00,-9.910658e+00
  117056, -4.772721e+00,-7.500000e+00,-9.910658e+00
  117057, -4.772721e+00,-1.000000e+01,-9.910658e+00
  117058, -4.772721e+00,-1.250000e+01,-9.910658e+00
  117059, -4.772721e+00,-1.500000e+01,-9.910658e+00
  117060, -4.772721e+00,-1.750000e+01,-9.910658e+00
  117061, -4.772721e+00,-2.000000e+01,-9.910658e+00
  117062, -4.772721e+00,-2.250000e+01,-9.910658e+00
  117063, -4.772721e+00,-2.500000e+01,-9.910658e+00
  117064, -4.772721e+00,-2.750000e+01,-9.910658e+00
  117065, -4.772721e+00,-3.000000e+01,-9.910658e+00
  117066, -4.772721e+00,-3.250000e+01,-9.910658e+00
  117067, -4.772721e+00,-3.500000e+01,-9.910658e+00
  117068, -4.772721e+00,-3.750000e+01,-9.910658e+00
  117069, -4.772721e+00,-4.000000e+01,-9.910658e+00
  117070, -4.772721e+00,-4.250000e+01,-9.910658e+00
  117071, -4.772721e+00,-4.500000e+01,-9.910658e+00
  117072, -4.772721e+00,-4.750000e+01,-9.910658e+00
  117073, -4.772721e+00,-5.000000e+01,-9.910658e+00
  117074, -4.772721e+00,-5.250000e+01,-9.910658e+00
  117075, -4.772721e+00,-5.500000e+01,-9.910658e+00
  117076, -4.772721e+00,-5.750000e+01,-9.910658e+00
  117077, -4.772721e+00,-6.000000e+01,-9.910658e+00
  117078, -4.772721e+00,-6.250000e+01,-9.910658e+00
  117079, -4.772721e+00,-6.500000e+01,-9.910658e+00
  117080, -4.772721e+00,-6.750000e+01,-9.910658e+00
  117081, -4.772721e+00,-7.000000e+01,-9.910658e+00
  117082, -4.772721e+00,-7.250000e+01,-9.910658e+00
  117083, -4.772721e+00,-7.500000e+01,-9.910658e+00
  117084, -4.772721e+00,-7.750000e+01,-9.910658e+00
  117085, -6.858388e+00,-2.500000e+00,-8.600146e+00
  117086, -6.858388e+00,-5.000000e+00,-8.600146e+00
  117087, -6.858388e+00,-7.500000e+00,-8.600146e+00
  117088, -6.858388e+00,-1.000000e+01,-8.600146e+00
  117089, -6.858388e+00,-1.250000e+01,-8.600146e+00
  117090, -6.858388e+00,-1.500000e+01,-8.600146e+00
  117091, -6.858388e+00,-1.750000e+01,-8.600146e+00
  117092, -6.858388e+00,-2.000000e+01,-8.600146e+00
  117093, -6.858388e+00,-2.250000e+01,-8.600146e+00
  117094, -6.858388e+00,-2.500000e+01,-8.600146e+00
  117095, -6.858388e+00,-2.750000e+01,-8.600146e+00
  117096, -6.858388e+00,-3.000000e+01,-8.600146e+00
  117097, -6.858388e+00,-3.250000e+01,-8.600146e+00
  117098, -6.858388e+00,-3.500000e+01,-8.600146e+00
  117099, -6.858388e+00,-3.750000e+01,-8.600146e+00
  117100, -6.858388e+00,-4.000000e+01,-8.600146e+00
  117101, -6.858388e+00,-4.250000e+01,-8.600146e+00
  117102, -6.858388e+00,-4.500000e+01,-8.600146e+00
  117103, -6.858388e+00,-4.750000e+01,-8.600146e+00
  117104, -6.858388e+00,-5.000000e+01,-8.600146e+00
  117105, -6.858388e+00,-5.250000e+01,-8.600146e+00
  117106, -6.858388e+00,-5.500000e+01,-8.600146e+00
  117107, -6.858388e+00,-5.750000e+01,-8.600146e+00
  117108, -6.858388e+00,-6.000000e+01,-8.600146e+00
  117109, -6.858388e+00,-6.250000e+01,-8.600146e+00
  117110, -6.858388e+00,-6.500000e+01,-8.600146e+00
  117111, -6.858388e+00,-6.750000e+01,-8.600146e+00
  117112, -6.858388e+00,-7.000000e+01,-8.600146e+00
  117113, -6.858388e+00,-7.250000e+01,-8.600146e+00
  117114, -6.858388e+00,-7.500000e+01,-8.600146e+00
  117115, -6.858388e+00,-7.750000e+01,-8.600146e+00
  117116, -8.600146e+00,-2.500000e+00,-6.858388e+00
  117117, -8.600146e+00,-5.000000e+00,-6.858388e+00
  117118, -8.600146e+00,-7.500000e+00,-6.858388e+00
  117119, -8.600146e+00,-1.000000e+01,-6.858388e+00
  117120, -8.600146e+00,-1.250000e+01,-6.858388e+00
  117121, -8.600146e+00,-1.500000e+01,-6.858388e+00
  117122, -8.600146e+00,-1.750000e+01,-6.858388e+00
  117123, -8.600146e+00,-2.000000e+01,-6.858388e+00
  117124, -8.600146e+00,-2.250000e+01,-6.858388e+00
  117125, -8.600146e+00,-2.500000e+01,-6.858388e+00
  117126, -8.600146e+00,-2.750000e+01,-6.858388e+00
  117127, -8.600146e+00,-3.000000e+01,-6.858388e+00
  117128, -8.600146e+00,-3.250000e+01,-6.858388e+00
  117129, -8.600146e+00,-3.500000e+01,-6.858388e+00
  117130, -8.600146e+00,-3.750000e+01,-6.858388e+00
  117131, -8.600146e+00,-4.000000e+01,-6.858388e+00
  117132, -8.600146e+00,-4.250000e+01,-6.858388e+00
  117133, -8.600146e+00,-4.500000e+01,-6.858388e+00
  117134, -8.600146e+00,-4.750000e+01,-6.858388e+00
  117135, -8.600146e+00,-5.000000e+01,-6.858388e+00
  117136, -8.600146e+00,-5.250000e+01,-6.858388e+00
  117137, -8.600146e+00,-5.500000e+01,-6.858388e+00
  117138, -8.600146e+00,-5.750000e+01,-6.858388e+00
  117139, -8.600146e+00,-6.000000e+01,-6.858388e+00
  117140, -8.600146e+00,-6.250000e+01,-6.858388e+00
  117141, -8.600146e+00,-6.500000e+01,-6.858388e+00
  117142, -8.600146e+00,-6.750000e+01,-6.858388e+00
  117143, -8.600146e+00,-7.000000e+01,-6.858388e+00
  117144, -8.600146e+00,-7.250000e+01,-6.858388e+00
  117145, -8.600146e+00,-7.500000e+01,-6.858388e+00
  117146, -8.600146e+00,-7.750000e+01,-6.858388e+00
  117147, -9.910658e+00,-2.500000e+00,-4.772721e+00
  117148, -9.910658e+00,-5.000000e+00,-4.772721e+00
  117149, -9.910658e+00,-7.500000e+00,-4.772721e+00
  117150, -9.910658e+00,-1.000000e+01,-4.772721e+00
  117151, -9.910658e+00,-1.250000e+01,-4.772721e+00
  117152, -9.910658e+00,-1.500000e+01,-4.772721e+00
  117153, -9.910658e+00,-1.750000e+01,-4.772721e+00
  117154, -9.910658e+00,-2.000000e+01,-4.772721e+00
  117155, -9.910658e+00,-2.250000e+01,-4.772721e+00
  117156, -9.910658e+00,-2.500000e+01,-4.772721e+00
  117157, -9.910658e+00,-2.750000e+01,-4.772721e+00
  117158, -9.910658e+00,-3.000000e+01,-4.772721e+00
  117159, -9.910658e+00,-3.250000e+01,-4.772721e+00
  117160, -9.910658e+00,-3.500000e+01,-4.772721e+00
  117161, -9.910658e+00,-3.750000e+01,-4.772721e+00
  117162, -9.910658e+00,-4.000000e+01,-4.772721e+00
  117163, -9.910658e+00,-4.250000e+01,-4.772721e+00
  117164, -9.910658e+00,-4.500000e+01,-4.772721e+00
  117165, -9.910658e+00,-4.750000e+01,-4.772721e+00
  117166, -9.910658e+00,-5.000000e+01,-4.772721e+00
  117167, -9.910658e+00,-5.250000e+01,-4.772721e+00
  117168, -9.910658e+00,-5.500000e+01,-4.772721e+00
  117169, -9.910658e+00,-5.750000e+01,-4.772721e+00
  117170, -9.910658e+00,-6.000000e+01,-4.772721e+00
  117171, -9.910658e+00,-6.250000e+01,-4.772721e+00
  117172, -9.910658e+00,-6.500000e+01,-4.772721e+00
  117173, -9.910658e+00,-6.750000e+01,-4.772721e+00
  117174, -9.910658e+00,-7.000000e+01,-4.772721e+00
  117175, -9.910658e+00,-7.250000e+01,-4.772721e+00
  117176, -9.910658e+00,-7.500000e+01,-4.772721e+00
  117177, -9.910658e+00,-7.750000e+01,-4.772721e+00
  117178, -1.072421e+01,-2.500000e+00,-2.447730e+00
  117179, -1.072421e+01,-5.000000e+00,-2.447730e+00
  117180, -1.072421e+01,-7.500000e+00,-2.447730e+00
  117181, -1.072421e+01,-1.000000e+01,-2.447730e+00
  117182, -1.072421e+01,-1.250000e+01,-2.447730e+00
  117183, -1.072421e+01,-1.500000e+01,-2.447730e+00
  117184, -1.072421e+01,-1.750000e+01,-2.447730e+00
  117185, -1.072421e+01,-2.000000e+01,-2.447730e+00
  117186, -1.072421e+01,-2.250000e+01,-2.447730e+00
  117187, -1.072421e+01,-2.500000e+01,-2.447730e+00
  117188, -1.072421e+01,-2.750000e+01,-2.447730e+00
  117189, -1.072421e+01,-3.000000e+01,-2.447730e+00
  117190, -1.072421e+01,-3.250000e+01,-2.447730e+00
  117191, -1.072421e+01,-3.500000e+01,-2.447730e+00
  117192, -1.072421e+01,-3.750000e+01,-2.447730e+00
  117193, -1.072421e+01,-4.000000e+01,-2.447730e+00
  117194, -1.072421e+01,-4.250000e+01,-2.447730e+00
  117195, -1.072421e+01,-4.500000e+01,-2.447730e+00
  117196, -1.072421e+01,-4.750000e+01,-2.447730e+00
  117197, -1.072421e+01,-5.000000e+01,-2.447730e+00
  117198, -1.072421e+01,-5.250000e+01,-2.447730e+00
  117199, -1.072421e+01,-5.500000e+01,-2.447730e+00
  117200, -1.072421e+01,-5.750000e+01,-2.447730e+00
  117201, -1.072421e+01,-6.000000e+01,-2.447730e+00
  117202, -1.072421e+01,-6.250000e+01,-2.447730e+00
  117203, -1.072421e+01,-6.500000e+01,-2.447730e+00
  117204, -1.072421e+01,-6.750000e+01,-2.447730e+00
  117205, -1.072421e+01,-7.000000e+01,-2.447730e+00
  117206, -1.072421e+01,-7.250000e+01,-2.447730e+00
  117207, -1.072421e+01,-7.500000e+01,-2.447730e+00
  117208, -1.072421e+01,-7.750000e+01,-2.447730e+00
  119134, -1.050000e+01,6.666670e+00,1.489987e-15
  119135, -2.048448e+00,6.666670e+00,-1.029825e+01
  119136, -4.018176e+00,6.666670e+00,-9.700735e+00
  119137, -5.833487e+00,6.666670e+00,-8.730431e+00
  119138, -7.424621e+00,6.666670e+00,-7.424621e+00
  119139, -8.730431e+00,6.666670e+00,-5.833487e+00
  119140, -9.700735e+00,6.666670e+00,-4.018176e+00
  119141, -1.029825e+01,6.666670e+00,-2.048448e+00
  119142, -1.050000e+01,0.000000e+00,1.898203e-15
  119143, -1.050000e+01,3.333335e+00,0.000000e+00
  119144, -2.048448e+00,0.000000e+00,-1.029825e+01
  119145, -4.018176e+00,0.000000e+00,-9.700735e+00
  119146, -5.833487e+00,0.000000e+00,-8.730431e+00
  119147, -7.424621e+00,0.000000e+00,-7.424621e+00
  119148, -8.730431e+00,0.000000e+00,-5.833487e+00
  119149, -9.700735e+00,0.000000e+00,-4.018176e+00
  119150, -1.029825e+01,0.000000e+00,-2.048448e+00
  119151, -2.048448e+00,3.333335e+00,-1.029825e+01
  119152, -4.018176e+00,3.333335e+00,-9.700735e+00
  119153, -5.833487e+00,3.333335e+00,-8.730431e+00
  119154, -7.424621e+00,3.333335e+00,-7.424621e+00
  119155, -8.730431e+00,3.333335e+00,-5.833487e+00
  119156, -9.700735e+00,3.333335e+00,-4.018176e+00
  119157, -1.029825e+01,3.333335e+00,-2.048448e+00
  119158, -1.333333e+01,6.666670e+00,0.000000e+00
  119159, -1.616667e+01,6.666670e+00,0.000000e+00
  119160, -2.601204e+00,6.666670e+00,-1.307714e+01
  119161, -3.153960e+00,6.666670e+00,-1.585603e+01
  119162, -5.102446e+00,6.666670e+00,-1.231839e+01
  119163, -6.186715e+00,6.666670e+00,-1.493605e+01
  119164, -7.407603e+00,6.666670e+00,-1.108626e+01
  119165, -8.981719e+00,6.666670e+00,-1.344209e+01
  119166, -9.428090e+00,6.666670e+00,-9.428090e+00
  119167, -1.143156e+01,6.666670e+00,-1.143156e+01
  119168, -1.108626e+01,6.666670e+00,-7.407603e+00
  119169, -1.344209e+01,6.666670e+00,-8.981719e+00
  119170, -1.231839e+01,6.666670e+00,-5.102446e+00
  119171, -1.493605e+01,6.666670e+00,-6.186715e+00
  119172, -1.307714e+01,6.666670e+00,-2.601204e+00
  119173, -1.585603e+01,6.666670e+00,-3.153960e+00
  119174, -1.616667e+01,0.000000e+00,0.000000e+00
  119175, -1.333333e+01,0.000000e+00,0.000000e+00
  119176, -1.616667e+01,3.333335e+00,0.000000e+00
  119177, -1.333333e+01,3.333335e+00,0.000000e+00
  119178, -3.153960e+00,0.000000e+00,-1.585603e+01
  119179, -2.601204e+00,0.000000e+00,-1.307714e+01
  119180, -6.186715e+00,0.000000e+00,-1.493605e+01
  119181, -5.102446e+00,0.000000e+00,-1.231839e+01
  119182, -8.981719e+00,0.000000e+00,-1.344209e+01
  119183, -7.407603e+00,0.000000e+00,-1.108626e+01
  119184, -1.143156e+01,0.000000e+00,-1.143156e+01
  119185, -9.428090e+00,0.000000e+00,-9.428090e+00
  119186, -1.344209e+01,0.000000e+00,-8.981719e+00
  119187, -1.108626e+01,0.000000e+00,-7.407603e+00
  119188, -1.493605e+01,0.000000e+00,-6.186715e+00
  119189, -1.231839e+01,0.000000e+00,-5.102446e+00
  119190, -1.585603e+01,0.000000e+00,-3.153960e+00
  119191, -1.307714e+01,0.000000e+00,-2.601204e+00
  119192, -1.585603e+01,3.333335e+00,-3.153960e+00
  119193, -1.307714e+01,3.333335e+00,-2.601204e+00
  119194, -1.493605e+01,3.333335e+00,-6.186715e+00
  119195, -1.231839e+01,3.333335e+00,-5.102446e+00
  119196, -1.344209e+01,3.333335e+00,-8.981719e+00
  119197, -1.108626e+01,3.333335e+00,-7.407603e+00
  119198, -1.143156e+01,3.333335e+00,-1.143156e+01
  119199, -9.428090e+00,3.333335e+00,-9.428090e+00
  119200, -8.981719e+00,3.333335e+00,-1.344209e+01
  119201, -7.407603e+00,3.333335e+00,-1.108626e+01
  119202, -6.186715e+00,3.333335e+00,-1.493605e+01
  119203, -5.102446e+00,3.333335e+00,-1.231839e+01
  119204, -3.153960e+00,3.333335e+00,-1.585603e+01
  119205, -2.601204e+00,3.333335e+00,-1.307714e+01
  119206, -1.050000e+01,2.000000e+01,-1.898203e-15
  119207, -1.029825e+01,2.000000e+01,-2.048448e+00
  119208, -9.700735e+00,2.000000e+01,-4.018176e+00
  119209, -8.730431e+00,2.000000e+01,-5.833487e+00
  119210, -7.424621e+00,2.000000e+01,-7.424621e+00
  119211, -5.833487e+00,2.000000e+01,-8.730431e+00
  119212, -4.018176e+00,2.000000e+01,-9.700735e+00
  119213, -2.048448e+00,2.000000e+01,-1.029825e+01
  119214, -1.050000e+01,1.000000e+01,-1.530808e-22
  119215, -1.050000e+01,1.333333e+01,-2.041079e-16
  119216, -1.050000e+01,1.666667e+01,-4.082157e-16
  119217, -2.048448e+00,1.000000e+01,-1.029825e+01
  119218, -2.048448e+00,1.333333e+01,-1.029825e+01
  119219, -2.048448e+00,1.666667e+01,-1.029825e+01
  119220, -4.018176e+00,1.000000e+01,-9.700735e+00
  119221, -4.018176e+00,1.333333e+01,-9.700735e+00
  119222, -4.018176e+00,1.666667e+01,-9.700735e+00
  119223, -5.833487e+00,1.000000e+01,-8.730431e+00
  119224, -5.833487e+00,1.333334e+01,-8.730431e+00
  119225, -5.833487e+00,1.666667e+01,-8.730431e+00
  119226, -7.424621e+00,1.000000e+01,-7.424621e+00
  119227, -7.424621e+00,1.333334e+01,-7.424621e+00
  119228, -7.424621e+00,1.666667e+01,-7.424621e+00
  119229, -8.730431e+00,1.000000e+01,-5.833487e+00
  119230, -8.730431e+00,1.333333e+01,-5.833487e+00
  119231, -8.730431e+00,1.666667e+01,-5.833487e+00
  119232, -9.700735e+00,1.000000e+01,-4.018176e+00
  119233, -9.700735e+00,1.333334e+01,-4.018176e+00
  119234, -9.700735e+00,1.666667e+01,-4.018176e+00
  119235, -1.029825e+01,1.000000e+01,-2.048448e+00
  119236, -1.029825e+01,1.333334e+01,-2.048448e+00
  119237, -1.029825e+01,1.666667e+01,-2.048448e+00
  119238, -1.333333e+01,2.000000e+01,0.000000e+00
  119239, -1.616667e+01,2.000000e+01,0.000000e+00
  119240, -2.601204e+00,2.000000e+01,-1.307714e+01
  119241, -3.153960e+00,2.000000e+01,-1.585603e+01
  119242, -5.102446e+00,2.000000e+01,-1.231839e+01
  119243, -6.186715e+00,2.000000e+01,-1.493605e+01
  119244, -7.407603e+00,2.000000e+01,-1.108626e+01
  119245, -8.981719e+00,2.000000e+01,-1.344209e+01
  119246, -9.428090e+00,2.000000e+01,-9.428090e+00
  119247, -1.143156e+01,2.000000e+01,-1.143156e+01
  119248, -1.108626e+01,2.000000e+01,-7.407603e+00
  119249, -1.344209e+01,2.000000e+01,-8.981719e+00
  119250, -1.231839e+01,2.000000e+01,-5.102446e+00
  119251, -1.493605e+01,2.000000e+01,-6.186715e+00
  119252, -1.307714e+01,2.000000e+01,-2.601204e+00
  119253, -1.585603e+01,2.000000e+01,-3.153960e+00
  119254, -1.616667e+01,1.666667e+01,0.000000e+00
  119255, -1.616667e+01,1.333333e+01,0.000000e+00
  119256, -1.616667e+01,1.000000e+01,0.000000e+00
  119257, -1.333333e+01,1.666667e+01,0.000000e+00
  119258, -1.333333e+01,1.333334e+01,0.000000e+00
  119259, -1.333333e+01,1.000000e+01,0.000000e+00
  119260, -1.585603e+01,1.666667e+01,-3.153960e+00
  119261, -1.307714e+01,1.666667e+01,-2.601204e+00
  119262, -1.585603e+01,1.333333e+01,-3.153960e+00
  119263, -1.307714e+01,1.333334e+01,-2.601204e+00
  119264, -1.585603e+01,1.000000e+01,-3.153960e+00
  119265, -1.307714e+01,1.000000e+01,-2.601204e+00
  119266, -1.493605e+01,1.666667e+01,-6.186715e+00
  119267, -1.231839e+01,1.666667e+01,-5.102446e+00
  119268, -1.493605e+01,1.333333e+01,-6.186715e+00
  119269, -1.231839e+01,1.333334e+01,-5.102446e+00
  119270, -1.493605e+01,1.000000e+01,-6.186715e+00
  119271, -1.231839e+01,1.000000e+01,-5.102446e+00
  119272, -1.344209e+01,1.666667e+01,-8.981719e+00
  119273, -1.108626e+01,1.666667e+01,-7.407603e+00
  119274, -1.344209e+01,1.333333e+01,-8.981719e+00
  119275, -1.108626e+01,1.333334e+01,-7.407603e+00
  119276, -1.344209e+01,1.000000e+01,-8.981719e+00
  119277, -1.108626e+01,1.000000e+01,-7.407603e+00
  119278, -1.143156e+01,1.666667e+01,-1.143156e+01
  119279, -9.428090e+00,1.666667e+01,-9.428090e+00
  119280, -1.143156e+01,1.333334e+01,-1.143156e+01
  119281, -9.428090e+00,1.333334e+01,-9.428090e+00
  119282, -1.143156e+01,1.000000e+01,-1.143156e+01
  119283, -9.428090e+00,1.000000e+01,-9.428090e+00
  119284, -8.981719e+00,1.666667e+01,-1.344209e+01
  119285, -7.407603e+00,1.666667e+01,-1.108626e+01
  119286, -8.981719e+00,1.333333e+01,-1.344209e+01
  119287, -7.407603e+00,1.333334e+01,-1.108626e+01
  119288, -8.981719e+00,1.000000e+01,-1.344209e+01
  119289, -7.407603e+00,1.000000e+01,-1.108626e+01
  119290, -6.186715e+00,1.666667e+01,-1.493605e+01
  119291, -5.102446e+00,1.666667e+01,-1.231839e+01
  119292, -6.186715e+00,1.333333e+01,-1.493605e+01
  119293, -5.102446e+00,1.333334e+01,-1.231839e+01
  119294, -6.186715e+00,1.000000e+01,-1.493605e+01
  119295, -5.102446e+00,1.000000e+01,-1.231839e+01
  119296, -3.153960e+00,1.666667e+01,-1.585603e+01
  119297, -2.601204e+00,1.666667e+01,-1.307714e+01
  119298, -3.153960e+00,1.333333e+01,-1.585603e+01
  119299, -2.601204e+00,1.333333e+01,-1.307714e+01
  119300, -3.153960e+00,1.000000e+01,-1.585603e+01
  119301, -2.601204e+00,1.000000e+01,-1.307714e+01
********************************** E L E M E N T S ****************************
*ELEMENT, TYPE=C3D8, ELSET=anchor
       1,  105567,  105537,  105518,  105558,  105225,  104953,  104952,  105226
       2,  105568,  105556,  105537,  105567,  105227,  104954,  104953,  105225
       3,  105418,  105360,  105556,  105568,  104870,  104869,  104954,  105227
       4,  105566,  105399,  105418,  105568,  105228,  104871,  104870,  105227
       5,  105565,  105566,  105568,  105567,  105229,  105228,  105227,  105225
       6,  105557,  105565,  105567,  105558,  105230,  105229,  105225,  105226
       7,  105564,  105380,  105399,  105566,  105231,  104872,  104871,  105228
       8,  105563,  105564,  105566,  105565,  105232,  105231,  105228,  105229
       9,  105559,  105563,  105565,  105557,  105233,  105232,  105229,  105230
      10,  105562,  105361,  105380,  105564,  105234,  104873,  104872,  105231
      11,  105561,  105562,  105564,  105563,  105235,  105234,  105231,  105232
      12,  105560,  105561,  105563,  105559,  105236,  105235,  105232,  105233
      13,  105318,  105261,  105361,  105562,  104808,  104805,  104873,  105234
      14,  105299,  105318,  105562,  105561,  104807,  104808,  105234,  105235
      15,  105280,  105299,  105561,  105560,  104806,  104807,  105235,  105236
      16,  105461,  105256,  105280,  105560,  104949,  104789,  104806,  105236
      17,  105480,  105461,  105560,  105559,  104950,  104949,  105236,  105233
      18,  105499,  105480,  105559,  105557,  104951,  104950,  105233,  105230
      19,  105518,  105499,  105557,  105558,  104952,  104951,  105230,  105226
      20,  105579,  105536,  105517,  105570,  105567,  105537,  105518,  105558
      21,  105580,  105555,  105536,  105579,  105568,  105556,  105537,  105567
      22,  105419,  105359,  105555,  105580,  105418,  105360,  105556,  105568
      23,  105578,  105400,  105419,  105580,  105566,  105399,  105418,  105568
      24,  105577,  105578,  105580,  105579,  105565,  105566,  105568,  105567
      25,  105569,  105577,  105579,  105570,  105557,  105565,  105567,  105558
      26,  105576,  105381,  105400,  105578,  105564,  105380,  105399,  105566
      27,  105575,  105576,  105578,  105577,  105563,  105564,  105566,  105565
      28,  105571,  105575,  105577,  105569,  105559,  105563,  105565,  105557
      29,  105574,  105362,  105381,  105576,  105562,  105361,  105380,  105564
      30,  105573,  105574,  105576,  105575,  105561,  105562,  105564,  105563
      31,  105572,  105573,  105575,  105571,  105560,  105561,  105563,  105559
      32,  105319,  105262,  105362,  105574,  105318,  105261,  105361,  105562
      33,  105300,  105319,  105574,  105573,  105299,  105318,  105562,  105561
      34,  105281,  105300,  105573,  105572,  105280,  105299,  105561,  105560
      35,  105460,  105255,  105281,  105572,  105461,  105256,  105280,  105560
      36,  105479,  105460,  105572,  105571,  105480,  105461,  105560,  105559
      37,  105498,  105479,  105571,  105569,  105499,  105480,  105559,  105557
      38,  105517,  105498,  105569,  105570,  105518,  105499,  105557,  105558
      39,  105591,  105535,  105516,  105582,  105579,  105536,  105517,  105570
      40,  105592,  105554,  105535,  105591,  105580,  105555,  105536,  105579
      41,  105420,  105358,  105554,  105592,  105419,  105359,  105555,  105580
      42,  105590,  105401,  105420,  105592,  105578,  105400,  105419,  105580
      43,  105589,  105590,  105592,  105591,  105577,  105578,  105580,  105579
      44,  105581,  105589,  105591,  105582,  105569,  105577,  105579,  105570
      45,  105588,  105382,  105401,  105590,  105576,  105381,  105400,  105578
      46,  105587,  105588,  105590,  105589,  105575,  105576,  105578,  105577
      47,  105583,  105587,  105589,  105581,  105571,  105575,  105577,  105569
      48,  105586,  105363,  105382,  105588,  105574,  105362,  105381,  105576
      49,  105585,  105586,  105588,  105587,  105573,  105574,  105576,  105575
      50,  105584,  105585,  105587,  105583,  105572,  105573,  105575,  105571
      51,  105320,  105263,  105363,  105586,  105319,  105262,  105362,  105574
      52,  105301,  105320,  105586,  105585,  105300,  105319,  105574,  105573
      53,  105282,  105301,  105585,  105584,  105281,  105300,  105573,  105572
      54,  105459,  105254,  105282,  105584,  105460,  105255,  105281,  105572
      55,  105478,  105459,  105584,  105583,  105479,  105460,  105572,  105571
      56,  105497,  105478,  105583,  105581,  105498,  105479,  105571,  105569
      57,  105516,  105497,  105581,  105582,  105517,  105498,  105569,  105570
      58,  105603,  105534,  105515,  105594,  105591,  105535,  105516,  105582
      59,  105604,  105553,  105534,  105603,  105592,  105554,  105535,  105591
      60,  105421,  105357,  105553,  105604,  105420,  105358,  105554,  105592
      61,  105602,  105402,  105421,  105604,  105590,  105401,  105420,  105592
      62,  105601,  105602,  105604,  105603,  105589,  105590,  105592,  105591
      63,  105593,  105601,  105603,  105594,  105581,  105589,  105591,  105582
      64,  105600,  105383,  105402,  105602,  105588,  105382,  105401,  105590
      65,  105599,  105600,  105602,  105601,  105587,  105588,  105590,  105589
      66,  105595,  105599,  105601,  105593,  105583,  105587,  105589,  105581
      67,  105598,  105364,  105383,  105600,  105586,  105363,  105382,  105588
      68,  105597,  105598,  105600,  105599,  105585,  105586,  105588,  105587
      69,  105596,  105597,  105599,  105595,  105584,  105585,  105587,  105583
      70,  105321,  105264,  105364,  105598,  105320,  105263,  105363,  105586
      71,  105302,  105321,  105598,  105597,  105301,  105320,  105586,  105585
      72,  105283,  105302,  105597,  105596,  105282,  105301,  105585,  105584
      73,  105458,  105253,  105283,  105596,  105459,  105254,  105282,  105584
      74,  105477,  105458,  105596,  105595,  105478,  105459,  105584,  105583
      75,  105496,  105477,  105595,  105593,  105497,  105478,  105583,  105581
      76,  105515,  105496,  105593,  105594,  105516,  105497,  105581,  105582
      77,  105615,  105533,  105514,  105606,  105603,  105534,  105515,  105594
      78,  105616,  105552,  105533,  105615,  105604,  105553,  105534,  105603
      79,  105422,  105356,  105552,  105616,  105421,  105357,  105553,  105604
      80,  105614,  105403,  105422,  105616,  105602,  105402,  105421,  105604
      81,  105613,  105614,  105616,  105615,  105601,  105602,  105604,  105603
      82,  105605,  105613,  105615,  105606,  105593,  105601,  105603,  105594
      83,  105612,  105384,  105403,  105614,  105600,  105383,  105402,  105602
      84,  105611,  105612,  105614,  105613,  105599,  105600,  105602,  105601
      85,  105607,  105611,  105613,  105605,  105595,  105599,  105601,  105593
      86,  105610,  105365,  105384,  105612,  105598,  105364,  105383,  105600
      87,  105609,  105610,  105612,  105611,  105597,  105598,  105600,  105599
      88,  105608,  105609,  105611,  105607,  105596,  105597,  105599,  105595
      89,  105322,  105265,  105365,  105610,  105321,  105264,  105364,  105598
      90,  105303,  105322,  105610,  105609,  105302,  105321,  105598,  105597
      91,  105284,  105303,  105609,  105608,  105283,  105302,  105597,  105596
      92,  105457,  105252,  105284,  105608,  105458,  105253,  105283,  105596
      93,  105476,  105457,  105608,  105607,  105477,  105458,  105596,  105595
      94,  105495,  105476,  105607,  105605,  105496,  105477,  105595,  105593
      95,  105514,  105495,  105605,  105606,  105515,  105496,  105593,  105594
      96,  105627,  105532,  105513,  105618,  105615,  105533,  105514,  105606
      97,  105628,  105551,  105532,  105627,  105616,  105552,  105533,  105615
      98,  105423,  105355,  105551,  105628,  105422,  105356,  105552,  105616
      99,  105626,  105404,  105423,  105628,  105614,  105403,  105422,  105616
     100,  105625,  105626,  105628,  105627,  105613,  105614,  105616,  105615
     101,  105617,  105625,  105627,  105618,  105605,  105613,  105615,  105606
     102,  105624,  105385,  105404,  105626,  105612,  105384,  105403,  105614
     103,  105623,  105624,  105626,  105625,  105611,  105612,  105614,  105613
     104,  105619,  105623,  105625,  105617,  105607,  105611,  105613,  105605
     105,  105622,  105366,  105385,  105624,  105610,  105365,  105384,  105612
     106,  105621,  105622,  105624,  105623,  105609,  105610,  105612,  105611
     107,  105620,  105621,  105623,  105619,  105608,  105609,  105611,  105607
     108,  105323,  105266,  105366,  105622,  105322,  105265,  105365,  105610
     109,  105304,  105323,  105622,  105621,  105303,  105322,  105610,  105609
     110,  105285,  105304,  105621,  105620,  105284,  105303,  105609,  105608
     111,  105456,  105251,  105285,  105620,  105457,  105252,  105284,  105608
     112,  105475,  105456,  105620,  105619,  105476,  105457,  105608,  105607
     113,  105494,  105475,  105619,  105617,  105495,  105476,  105607,  105605
     114,  105513,  105494,  105617,  105618,  105514,  105495,  105605,  105606
     115,  105639,  105531,  105512,  105630,  105627,  105532,  105513,  105618
     116,  105640,  105550,  105531,  105639,  105628,  105551,  105532,  105627
     117,  105424,  105354,  105550,  105640,  105423,  105355,  105551,  105628
     118,  105638,  105405,  105424,  105640,  105626,  105404,  105423,  105628
     119,  105637,  105638,  105640,  105639,  105625,  105626,  105628,  105627
     120,  105629,  105637,  105639,  105630,  105617,  105625,  105627,  105618
     121,  105636,  105386,  105405,  105638,  105624,  105385,  105404,  105626
     122,  105635,  105636,  105638,  105637,  105623,  105624,  105626,  105625
     123,  105631,  105635,  105637,  105629,  105619,  105623,  105625,  105617
     124,  105634,  105367,  105386,  105636,  105622,  105366,  105385,  105624
     125,  105633,  105634,  105636,  105635,  105621,  105622,  105624,  105623
     126,  105632,  105633,  105635,  105631,  105620,  105621,  105623,  105619
     127,  105324,  105267,  105367,  105634,  105323,  105266,  105366,  105622
     128,  105305,  105324,  105634,  105633,  105304,  105323,  105622,  105621
     129,  105286,  105305,  105633,  105632,  105285,  105304,  105621,  105620
     130,  105455,  105250,  105286,  105632,  105456,  105251,  105285,  105620
     131,  105474,  105455,  105632,  105631,  105475,  105456,  105620,  105619
     132,  105493,  105474,  105631,  105629,  105494,  105475,  105619,  105617
     133,  105512,  105493,  105629,  105630,  105513,  105494,  105617,  105618
     134,  105651,  105530,  105511,  105642,  105639,  105531,  105512,  105630
     135,  105652,  105549,  105530,  105651,  105640,  105550,  105531,  105639
     136,  105425,  105353,  105549,  105652,  105424,  105354,  105550,  105640
     137,  105650,  105406,  105425,  105652,  105638,  105405,  105424,  105640
     138,  105649,  105650,  105652,  105651,  105637,  105638,  105640,  105639
     139,  105641,  105649,  105651,  105642,  105629,  105637,  105639,  105630
     140,  105648,  105387,  105406,  105650,  105636,  105386,  105405,  105638
     141,  105647,  105648,  105650,  105649,  105635,  105636,  105638,  105637
     142,  105643,  105647,  105649,  105641,  105631,  105635,  105637,  105629
     143,  105646,  105368,  105387,  105648,  105634,  105367,  105386,  105636
     144,  105645,  105646,  105648,  105647,  105633,  105634,  105636,  105635
     145,  105644,  105645,  105647,  105643,  105632,  105633,  105635,  105631
     146,  105325,  105268,  105368,  105646,  105324,  105267,  105367,  105634
     147,  105306,  105325,  105646,  105645,  105305,  105324,  105634,  105633
     148,  105287,  105306,  105645,  105644,  105286,  105305,  105633,  105632
     149,  105454,  105249,  105287,  105644,  105455,  105250,  105286,  105632
     150,  105473,  105454,  105644,  105643,  105474,  105455,  105632,  105631
     151,  105492,  105473,  105643,  105641,  105493,  105474,  105631,  105629
     152,  105511,  105492,  105641,  105642,  105512,  105493,  105629,  105630
     153,  105663,  105529,  105510,  105654,  105651,  105530,  105511,  105642
     154,  105664,  105548,  105529,  105663,  105652,  105549,  105530,  105651
     155,  105426,  105352,  105548,  105664,  105425,  105353,  105549,  105652
     156,  105662,  105407,  105426,  105664,  105650,  105406,  105425,  105652
     157,  105661,  105662,  105664,  105663,  105649,  105650,  105652,  105651
     158,  105653,  105661,  105663,  105654,  105641,  105649,  105651,  105642
     159,  105660,  105388,  105407,  105662,  105648,  105387,  105406,  105650
     160,  105659,  105660,  105662,  105661,  105647,  105648,  105650,  105649
     161,  105655,  105659,  105661,  105653,  105643,  105647,  105649,  105641
     162,  105658,  105369,  105388,  105660,  105646,  105368,  105387,  105648
     163,  105657,  105658,  105660,  105659,  105645,  105646,  105648,  105647
     164,  105656,  105657,  105659,  105655,  105644,  105645,  105647,  105643
     165,  105326,  105269,  105369,  105658,  105325,  105268,  105368,  105646
     166,  105307,  105326,  105658,  105657,  105306,  105325,  105646,  105645
     167,  105288,  105307,  105657,  105656,  105287,  105306,  105645,  105644
     168,  105453,  105248,  105288,  105656,  105454,  105249,  105287,  105644
     169,  105472,  105453,  105656,  105655,  105473,  105454,  105644,  105643
     170,  105491,  105472,  105655,  105653,  105492,  105473,  105643,  105641
     171,  105510,  105491,  105653,  105654,  105511,  105492,  105641,  105642
     172,  105675,  105528,  105509,  105666,  105663,  105529,  105510,  105654
     173,  105676,  105547,  105528,  105675,  105664,  105548,  105529,  105663
     174,  105427,  105351,  105547,  105676,  105426,  105352,  105548,  105664
     175,  105674,  105408,  105427,  105676,  105662,  105407,  105426,  105664
     176,  105673,  105674,  105676,  105675,  105661,  105662,  105664,  105663
     177,  105665,  105673,  105675,  105666,  105653,  105661,  105663,  105654
     178,  105672,  105389,  105408,  105674,  105660,  105388,  105407,  105662
     179,  105671,  105672,  105674,  105673,  105659,  105660,  105662,  105661
     180,  105667,  105671,  105673,  105665,  105655,  105659,  105661,  105653
     181,  105670,  105370,  105389,  105672,  105658,  105369,  105388,  105660
     182,  105669,  105670,  105672,  105671,  105657,  105658,  105660,  105659
     183,  105668,  105669,  105671,  105667,  105656,  105657,  105659,  105655
     184,  105327,  105270,  105370,  105670,  105326,  105269,  105369,  105658
     185,  105308,  105327,  105670,  105669,  105307,  105326,  105658,  105657
     186,  105289,  105308,  105669,  105668,  105288,  105307,  105657,  105656
     187,  105452,  105247,  105289,  105668,  105453,  105248,  105288,  105656
     188,  105471,  105452,  105668,  105667,  105472,  105453,  105656,  105655
     189,  105490,  105471,  105667,  105665,  105491,  105472,  105655,  105653
     190,  105509,  105490,  105665,  105666,  105510,  105491,  105653,  105654
     191,  105687,  105527,  105508,  105678,  105675,  105528,  105509,  105666
     192,  105688,  105546,  105527,  105687,  105676,  105547,  105528,  105675
     193,  105428,  105350,  105546,  105688,  105427,  105351,  105547,  105676
     194,  105686,  105409,  105428,  105688,  105674,  105408,  105427,  105676
     195,  105685,  105686,  105688,  105687,  105673,  105674,  105676,  105675
     196,  105677,  105685,  105687,  105678,  105665,  105673,  105675,  105666
     197,  105684,  105390,  105409,  105686,  105672,  105389,  105408,  105674
     198,  105683,  105684,  105686,  105685,  105671,  105672,  105674,  105673
     199,  105679,  105683,  105685,  105677,  105667,  105671,  105673,  105665
     200,  105682,  105371,  105390,  105684,  105670,  105370,  105389,  105672
     201,  105681,  105682,  105684,  105683,  105669,  105670,  105672,  105671
     202,  105680,  105681,  105683,  105679,  105668,  105669,  105671,  105667
     203,  105328,  105271,  105371,  105682,  105327,  105270,  105370,  105670
     204,  105309,  105328,  105682,  105681,  105308,  105327,  105670,  105669
     205,  105290,  105309,  105681,  105680,  105289,  105308,  105669,  105668
     206,  105451,  105246,  105290,  105680,  105452,  105247,  105289,  105668
     207,  105470,  105451,  105680,  105679,  105471,  105452,  105668,  105667
     208,  105489,  105470,  105679,  105677,  105490,  105471,  105667,  105665
     209,  105508,  105489,  105677,  105678,  105509,  105490,  105665,  105666
     210,  105699,  105526,  105507,  105690,  105687,  105527,  105508,  105678
     211,  105700,  105545,  105526,  105699,  105688,  105546,  105527,  105687
     212,  105429,  105349,  105545,  105700,  105428,  105350,  105546,  105688
     213,  105698,  105410,  105429,  105700,  105686,  105409,  105428,  105688
     214,  105697,  105698,  105700,  105699,  105685,  105686,  105688,  105687
     215,  105689,  105697,  105699,  105690,  105677,  105685,  105687,  105678
     216,  105696,  105391,  105410,  105698,  105684,  105390,  105409,  105686
     217,  105695,  105696,  105698,  105697,  105683,  105684,  105686,  105685
     218,  105691,  105695,  105697,  105689,  105679,  105683,  105685,  105677
     219,  105694,  105372,  105391,  105696,  105682,  105371,  105390,  105684
     220,  105693,  105694,  105696,  105695,  105681,  105682,  105684,  105683
     221,  105692,  105693,  105695,  105691,  105680,  105681,  105683,  105679
     222,  105329,  105272,  105372,  105694,  105328,  105271,  105371,  105682
     223,  105310,  105329,  105694,  105693,  105309,  105328,  105682,  105681
     224,  105291,  105310,  105693,  105692,  105290,  105309,  105681,  105680
     225,  105450,  105245,  105291,  105692,  105451,  105246,  105290,  105680
     226,  105469,  105450,  105692,  105691,  105470,  105451,  105680,  105679
     227,  105488,  105469,  105691,  105689,  105489,  105470,  105679,  105677
     228,  105507,  105488,  105689,  105690,  105508,  105489,  105677,  105678
     229,  105711,  105525,  105506,  105702,  105699,  105526,  105507,  105690
     230,  105712,  105544,  105525,  105711,  105700,  105545,  105526,  105699
     231,  105430,  105348,  105544,  105712,  105429,  105349,  105545,  105700
     232,  105710,  105411,  105430,  105712,  105698,  105410,  105429,  105700
     233,  105709,  105710,  105712,  105711,  105697,  105698,  105700,  105699
     234,  105701,  105709,  105711,  105702,  105689,  105697,  105699,  105690
     235,  105708,  105392,  105411,  105710,  105696,  105391,  105410,  105698
     236,  105707,  105708,  105710,  105709,  105695,  105696,  105698,  105697
     237,  105703,  105707,  105709,  105701,  105691,  105695,  105697,  105689
     238,  105706,  105373,  105392,  105708,  105694,  105372,  105391,  105696
     239,  105705,  105706,  105708,  105707,  105693,  105694,  105696,  105695
     240,  105704,  105705,  105707,  105703,  105692,  105693,  105695,  105691
     241,  105330,  105273,  105373,  105706,  105329,  105272,  105372,  105694
     242,  105311,  105330,  105706,  105705,  105310,  105329,  105694,  105693
     243,  105292,  105311,  105705,  105704,  105291,  105310,  105693,  105692
     244,  105449,  105244,  105292,  105704,  105450,  105245,  105291,  105692
     245,  105468,  105449,  105704,  105703,  105469,  105450,  105692,  105691
     246,  105487,  105468,  105703,  105701,  105488,  105469,  105691,  105689
     247,  105506,  105487,  105701,  105702,  105507,  105488,  105689,  105690
     248,  105723,  105524,  105505,  105714,  105711,  105525,  105506,  105702
     249,  105724,  105543,  105524,  105723,  105712,  105544,  105525,  105711
     250,  105431,  105347,  105543,  105724,  105430,  105348,  105544,  105712
     251,  105722,  105412,  105431,  105724,  105710,  105411,  105430,  105712
     252,  105721,  105722,  105724,  105723,  105709,  105710,  105712,  105711
     253,  105713,  105721,  105723,  105714,  105701,  105709,  105711,  105702
     254,  105720,  105393,  105412,  105722,  105708,  105392,  105411,  105710
     255,  105719,  105720,  105722,  105721,  105707,  105708,  105710,  105709
     256,  105715,  105719,  105721,  105713,  105703,  105707,  105709,  105701
     257,  105718,  105374,  105393,  105720,  105706,  105373,  105392,  105708
     258,  105717,  105718,  105720,  105719,  105705,  105706,  105708,  105707
     259,  105716,  105717,  105719,  105715,  105704,  105705,  105707,  105703
     260,  105331,  105274,  105374,  105718,  105330,  105273,  105373,  105706
     261,  105312,  105331,  105718,  105717,  105311,  105330,  105706,  105705
     262,  105293,  105312,  105717,  105716,  105292,  105311,  105705,  105704
     263,  105448,  105243,  105293,  105716,  105449,  105244,  105292,  105704
     264,  105467,  105448,  105716,  105715,  105468,  105449,  105704,  105703
     265,  105486,  105467,  105715,  105713,  105487,  105468,  105703,  105701
     266,  105505,  105486,  105713,  105714,  105506,  105487,  105701,  105702
     267,  105735,  105523,  105504,  105726,  105723,  105524,  105505,  105714
     268,  105736,  105542,  105523,  105735,  105724,  105543,  105524,  105723
     269,  105432,  105346,  105542,  105736,  105431,  105347,  105543,  105724
     270,  105734,  105413,  105432,  105736,  105722,  105412,  105431,  105724
     271,  105733,  105734,  105736,  105735,  105721,  105722,  105724,  105723
     272,  105725,  105733,  105735,  105726,  105713,  105721,  105723,  105714
     273,  105732,  105394,  105413,  105734,  105720,  105393,  105412,  105722
     274,  105731,  105732,  105734,  105733,  105719,  105720,  105722,  105721
     275,  105727,  105731,  105733,  105725,  105715,  105719,  105721,  105713
     276,  105730,  105375,  105394,  105732,  105718,  105374,  105393,  105720
     277,  105729,  105730,  105732,  105731,  105717,  105718,  105720,  105719
     278,  105728,  105729,  105731,  105727,  105716,  105717,  105719,  105715
     279,  105332,  105275,  105375,  105730,  105331,  105274,  105374,  105718
     280,  105313,  105332,  105730,  105729,  105312,  105331,  105718,  105717
     281,  105294,  105313,  105729,  105728,  105293,  105312,  105717,  105716
     282,  105447,  105242,  105294,  105728,  105448,  105243,  105293,  105716
     283,  105466,  105447,  105728,  105727,  105467,  105448,  105716,  105715
     284,  105485,  105466,  105727,  105725,  105486,  105467,  105715,  105713
     285,  105504,  105485,  105725,  105726,  105505,  105486,  105713,  105714
     286,  105747,  105522,  105503,  105738,  105735,  105523,  105504,  105726
     287,  105748,  105541,  105522,  105747,  105736,  105542,  105523,  105735
     288,  105433,  105345,  105541,  105748,  105432,  105346,  105542,  105736
     289,  105746,  105414,  105433,  105748,  105734,  105413,  105432,  105736
     290,  105745,  105746,  105748,  105747,  105733,  105734,  105736,  105735
     291,  105737,  105745,  105747,  105738,  105725,  105733,  105735,  105726
     292,  105744,  105395,  105414,  105746,  105732,  105394,  105413,  105734
     293,  105743,  105744,  105746,  105745,  105731,  105732,  105734,  105733
     294,  105739,  105743,  105745,  105737,  105727,  105731,  105733,  105725
     295,  105742,  105376,  105395,  105744,  105730,  105375,  105394,  105732
     296,  105741,  105742,  105744,  105743,  105729,  105730,  105732,  105731
     297,  105740,  105741,  105743,  105739,  105728,  105729,  105731,  105727
     298,  105333,  105276,  105376,  105742,  105332,  105275,  105375,  105730
     299,  105314,  105333,  105742,  105741,  105313,  105332,  105730,  105729
     300,  105295,  105314,  105741,  105740,  105294,  105313,  105729,  105728
     301,  105446,  105241,  105295,  105740,  105447,  105242,  105294,  105728
     302,  105465,  105446,  105740,  105739,  105466,  105447,  105728,  105727
     303,  105484,  105465,  105739,  105737,  105485,  105466,  105727,  105725
     304,  105503,  105484,  105737,  105738,  105504,  105485,  105725,  105726
     305,  105759,  105521,  105502,  105750,  105747,  105522,  105503,  105738
     306,  105760,  105540,  105521,  105759,  105748,  105541,  105522,  105747
     307,  105434,  105344,  105540,  105760,  105433,  105345,  105541,  105748
     308,  105758,  105415,  105434,  105760,  105746,  105414,  105433,  105748
     309,  105757,  105758,  105760,  105759,  105745,  105746,  105748,  105747
     310,  105749,  105757,  105759,  105750,  105737,  105745,  105747,  105738
     311,  105756,  105396,  105415,  105758,  105744,  105395,  105414,  105746
     312,  105755,  105756,  105758,  105757,  105743,  105744,  105746,  105745
     313,  105751,  105755,  105757,  105749,  105739,  105743,  105745,  105737
     314,  105754,  105377,  105396,  105756,  105742,  105376,  105395,  105744
     315,  105753,  105754,  105756,  105755,  105741,  105742,  105744,  105743
     316,  105752,  105753,  105755,  105751,  105740,  105741,  105743,  105739
     317,  105334,  105277,  105377,  105754,  105333,  105276,  105376,  105742
     318,  105315,  105334,  105754,  105753,  105314,  105333,  105742,  105741
     319,  105296,  105315,  105753,  105752,  105295,  105314,  105741,  105740
     320,  105445,  105240,  105296,  105752,  105446,  105241,  105295,  105740
     321,  105464,  105445,  105752,  105751,  105465,  105446,  105740,  105739
     322,  105483,  105464,  105751,  105749,  105484,  105465,  105739,  105737
     323,  105502,  105483,  105749,  105750,  105503,  105484,  105737,  105738
     324,  105771,  105520,  105501,  105762,  105759,  105521,  105502,  105750
     325,  105772,  105539,  105520,  105771,  105760,  105540,  105521,  105759
     326,  105435,  105343,  105539,  105772,  105434,  105344,  105540,  105760
     327,  105770,  105416,  105435,  105772,  105758,  105415,  105434,  105760
     328,  105769,  105770,  105772,  105771,  105757,  105758,  105760,  105759
     329,  105761,  105769,  105771,  105762,  105749,  105757,  105759,  105750
     330,  105768,  105397,  105416,  105770,  105756,  105396,  105415,  105758
     331,  105767,  105768,  105770,  105769,  105755,  105756,  105758,  105757
     332,  105763,  105767,  105769,  105761,  105751,  105755,  105757,  105749
     333,  105766,  105378,  105397,  105768,  105754,  105377,  105396,  105756
     334,  105765,  105766,  105768,  105767,  105753,  105754,  105756,  105755
     335,  105764,  105765,  105767,  105763,  105752,  105753,  105755,  105751
     336,  105335,  105278,  105378,  105766,  105334,  105277,  105377,  105754
     337,  105316,  105335,  105766,  105765,  105315,  105334,  105754,  105753
     338,  105297,  105316,  105765,  105764,  105296,  105315,  105753,  105752
     339,  105444,  105239,  105297,  105764,  105445,  105240,  105296,  105752
     340,  105463,  105444,  105764,  105763,  105464,  105445,  105752,  105751
     341,  105482,  105463,  105763,  105761,  105483,  105464,  105751,  105749
     342,  105501,  105482,  105761,  105762,  105502,  105483,  105749,  105750
     343,  105783,  105519,  105500,  105774,  105771,  105520,  105501,  105762
     344,  105784,  105538,  105519,  105783,  105772,  105539,  105520,  105771
     345,  105436,  105342,  105538,  105784,  105435,  105343,  105539,  105772
     346,  105782,  105417,  105436,  105784,  105770,  105416,  105435,  105772
     347,  105781,  105782,  105784,  105783,  105769,  105770,  105772,  105771
     348,  105773,  105781,  105783,  105774,  105761,  105769,  105771,  105762
     349,  105780,  105398,  105417,  105782,  105768,  105397,  105416,  105770
     350,  105779,  105780,  105782,  105781,  105767,  105768,  105770,  105769
     351,  105775,  105779,  105781,  105773,  105763,  105767,  105769,  105761
     352,  105778,  105379,  105398,  105780,  105766,  105378,  105397,  105768
     353,  105777,  105778,  105780,  105779,  105765,  105766,  105768,  105767
     354,  105776,  105777,  105779,  105775,  105764,  105765,  105767,  105763
     355,  105336,  105279,  105379,  105778,  105335,  105278,  105378,  105766
     356,  105317,  105336,  105778,  105777,  105316,  105335,  105766,  105765
     357,  105298,  105317,  105777,  105776,  105297,  105316,  105765,  105764
     358,  105443,  105238,  105298,  105776,  105444,  105239,  105297,  105764
     359,  105462,  105443,  105776,  105775,  105463,  105444,  105764,  105763
     360,  105481,  105462,  105775,  105773,  105482,  105463,  105763,  105761
     361,  105500,  105481,  105773,  105774,  105501,  105482,  105761,  105762
     362,  105795,  105441,  105440,  105786,  105783,  105519,  105500,  105774
     363,  105796,  105442,  105441,  105795,  105784,  105538,  105519,  105783
     364,  105341,  105337,  105442,  105796,  105436,  105342,  105538,  105784
     365,  105794,  105340,  105341,  105796,  105782,  105417,  105436,  105784
     366,  105793,  105794,  105796,  105795,  105781,  105782,  105784,  105783
     367,  105785,  105793,  105795,  105786,  105773,  105781,  105783,  105774
     368,  105792,  105339,  105340,  105794,  105780,  105398,  105417,  105782
     369,  105791,  105792,  105794,  105793,  105779,  105780,  105782,  105781
     370,  105787,  105791,  105793,  105785,  105775,  105779,  105781,  105773
     371,  105790,  105338,  105339,  105792,  105778,  105379,  105398,  105780
     372,  105789,  105790,  105792,  105791,  105777,  105778,  105780,  105779
     373,  105788,  105789,  105791,  105787,  105776,  105777,  105779,  105775
     374,  105258,  105257,  105338,  105790,  105336,  105279,  105379,  105778
     375,  105259,  105258,  105790,  105789,  105317,  105336,  105778,  105777
     376,  105260,  105259,  105789,  105788,  105298,  105317,  105777,  105776
     377,  105437,  105237,  105260,  105788,  105443,  105238,  105298,  105776
     378,  105438,  105437,  105788,  105787,  105462,  105443,  105776,  105775
     379,  105439,  105438,  105787,  105785,  105481,  105462,  105775,  105773
     380,  105440,  105439,  105785,  105786,  105500,  105481,  105773,  105774
     381,  105014,  104999,  105050,  105046,  104738,  104737,  104777,  104778
     382,  104999,  104984,  105053,  105050,  104737,  104736,  104779,  104777
     383,  104984,  104969,  105056,  105053,  104736,  104735,  104780,  104779
     384,  104969,  104804,  104824,  105056,  104735,  104705,  104709,  104780
     385,  104824,  104839,  105055,  105056,  104709,  104710,  104781,  104780
     386,  104839,  104854,  105054,  105055,  104710,  104711,  104782,  104781
     387,  104854,  104809,  104889,  105054,  104711,  104708,  104724,  104782
     388,  105056,  105055,  105052,  105053,  104780,  104781,  104783,  104779
     389,  105055,  105054,  105051,  105052,  104781,  104782,  104784,  104783
     390,  105054,  104889,  104904,  105051,  104782,  104724,  104723,  104784
     391,  105053,  105052,  105049,  105050,  104779,  104783,  104785,  104777
     392,  105052,  105051,  105048,  105049,  104783,  104784,  104786,  104785
     393,  105051,  104904,  104919,  105048,  104784,  104723,  104722,  104786
     394,  105050,  105049,  105045,  105046,  104777,  104785,  104787,  104778
     395,  105049,  105048,  105047,  105045,  104785,  104786,  104788,  104787
     396,  105048,  104919,  104934,  105047,  104786,  104722,  104721,  104788
     397,  104934,  104888,  105044,  105047,  104721,  104720,  104740,  104788
     398,  105047,  105044,  105029,  105045,  104788,  104740,  104739,  104787
     399,  105045,  105029,  105014,  105046,  104787,  104739,  104738,  104778
     400,  105013,  104998,  105062,  105058,  105014,  104999,  105050,  105046
     401,  104998,  104983,  105065,  105062,  104999,  104984,  105053,  105050
     402,  104983,  104968,  105068,  105065,  104984,  104969,  105056,  105053
     403,  104968,  104803,  104825,  105068,  104969,  104804,  104824,  105056
     404,  104825,  104840,  105067,  105068,  104824,  104839,  105055,  105056
     405,  104840,  104855,  105066,  105067,  104839,  104854,  105054,  105055
     406,  104855,  104810,  104890,  105066,  104854,  104809,  104889,  105054
     407,  105068,  105067,  105064,  105065,  105056,  105055,  105052,  105053
     408,  105067,  105066,  105063,  105064,  105055,  105054,  105051,  105052
     409,  105066,  104890,  104905,  105063,  105054,  104889,  104904,  105051
     410,  105065,  105064,  105061,  105062,  105053,  105052,  105049,  105050
     411,  105064,  105063,  105060,  105061,  105052,  105051,  105048,  105049
     412,  105063,  104905,  104920,  105060,  105051,  104904,  104919,  105048
     413,  105062,  105061,  105057,  105058,  105050,  105049,  105045,  105046
     414,  105061,  105060,  105059,  105057,  105049,  105048,  105047,  105045
     415,  105060,  104920,  104935,  105059,  105048,  104919,  104934,  105047
     416,  104935,  104887,  105043,  105059,  104934,  104888,  105044,  105047
     417,  105059,  105043,  105028,  105057,  105047,  105044,  105029,  105045
     418,  105057,  105028,  105013,  105058,  105045,  105029,  105014,  105046
     419,  105012,  104997,  105074,  105070,  105013,  104998,  105062,  105058
     420,  104997,  104982,  105077,  105074,  104998,  104983,  105065,  105062
     421,  104982,  104967,  105080,  105077,  104983,  104968,  105068,  105065
     422,  104967,  104802,  104826,  105080,  104968,  104803,  104825,  105068
     423,  104826,  104841,  105079,  105080,  104825,  104840,  105067,  105068
     424,  104841,  104856,  105078,  105079,  104840,  104855,  105066,  105067
     425,  104856,  104811,  104891,  105078,  104855,  104810,  104890,  105066
     426,  105080,  105079,  105076,  105077,  105068,  105067,  105064,  105065
     427,  105079,  105078,  105075,  105076,  105067,  105066,  105063,  105064
     428,  105078,  104891,  104906,  105075,  105066,  104890,  104905,  105063
     429,  105077,  105076,  105073,  105074,  105065,  105064,  105061,  105062
     430,  105076,  105075,  105072,  105073,  105064,  105063,  105060,  105061
     431,  105075,  104906,  104921,  105072,  105063,  104905,  104920,  105060
     432,  105074,  105073,  105069,  105070,  105062,  105061,  105057,  105058
     433,  105073,  105072,  105071,  105069,  105061,  105060,  105059,  105057
     434,  105072,  104921,  104936,  105071,  105060,  104920,  104935,  105059
     435,  104936,  104886,  105042,  105071,  104935,  104887,  105043,  105059
     436,  105071,  105042,  105027,  105069,  105059,  105043,  105028,  105057
     437,  105069,  105027,  105012,  105070,  105057,  105028,  105013,  105058
     438,  105011,  104996,  105086,  105082,  105012,  104997,  105074,  105070
     439,  104996,  104981,  105089,  105086,  104997,  104982,  105077,  105074
     440,  104981,  104966,  105092,  105089,  104982,  104967,  105080,  105077
     441,  104966,  104801,  104827,  105092,  104967,  104802,  104826,  105080
     442,  104827,  104842,  105091,  105092,  104826,  104841,  105079,  105080
     443,  104842,  104857,  105090,  105091,  104841,  104856,  105078,  105079
     444,  104857,  104812,  104892,  105090,  104856,  104811,  104891,  105078
     445,  105092,  105091,  105088,  105089,  105080,  105079,  105076,  105077
     446,  105091,  105090,  105087,  105088,  105079,  105078,  105075,  105076
     447,  105090,  104892,  104907,  105087,  105078,  104891,  104906,  105075
     448,  105089,  105088,  105085,  105086,  105077,  105076,  105073,  105074
     449,  105088,  105087,  105084,  105085,  105076,  105075,  105072,  105073
     450,  105087,  104907,  104922,  105084,  105075,  104906,  104921,  105072
     451,  105086,  105085,  105081,  105082,  105074,  105073,  105069,  105070
     452,  105085,  105084,  105083,  105081,  105073,  105072,  105071,  105069
     453,  105084,  104922,  104937,  105083,  105072,  104921,  104936,  105071
     454,  104937,  104885,  105041,  105083,  104936,  104886,  105042,  105071
     455,  105083,  105041,  105026,  105081,  105071,  105042,  105027,  105069
     456,  105081,  105026,  105011,  105082,  105069,  105027,  105012,  105070
     457,  105010,  104995,  105098,  105094,  105011,  104996,  105086,  105082
     458,  104995,  104980,  105101,  105098,  104996,  104981,  105089,  105086
     459,  104980,  104965,  105104,  105101,  104981,  104966,  105092,  105089
     460,  104965,  104800,  104828,  105104,  104966,  104801,  104827,  105092
     461,  104828,  104843,  105103,  105104,  104827,  104842,  105091,  105092
     462,  104843,  104858,  105102,  105103,  104842,  104857,  105090,  105091
     463,  104858,  104813,  104893,  105102,  104857,  104812,  104892,  105090
     464,  105104,  105103,  105100,  105101,  105092,  105091,  105088,  105089
     465,  105103,  105102,  105099,  105100,  105091,  105090,  105087,  105088
     466,  105102,  104893,  104908,  105099,  105090,  104892,  104907,  105087
     467,  105101,  105100,  105097,  105098,  105089,  105088,  105085,  105086
     468,  105100,  105099,  105096,  105097,  105088,  105087,  105084,  105085
     469,  105099,  104908,  104923,  105096,  105087,  104907,  104922,  105084
     470,  105098,  105097,  105093,  105094,  105086,  105085,  105081,  105082
     471,  105097,  105096,  105095,  105093,  105085,  105084,  105083,  105081
     472,  105096,  104923,  104938,  105095,  105084,  104922,  104937,  105083
     473,  104938,  104884,  105040,  105095,  104937,  104885,  105041,  105083
     474,  105095,  105040,  105025,  105093,  105083,  105041,  105026,  105081
     475,  105093,  105025,  105010,  105094,  105081,  105026,  105011,  105082
     476,  105009,  104994,  105110,  105106,  105010,  104995,  105098,  105094
     477,  104994,  104979,  105113,  105110,  104995,  104980,  105101,  105098
     478,  104979,  104964,  105116,  105113,  104980,  104965,  105104,  105101
     479,  104964,  104799,  104829,  105116,  104965,  104800,  104828,  105104
     480,  104829,  104844,  105115,  105116,  104828,  104843,  105103,  105104
     481,  104844,  104859,  105114,  105115,  104843,  104858,  105102,  105103
     482,  104859,  104814,  104894,  105114,  104858,  104813,  104893,  105102
     483,  105116,  105115,  105112,  105113,  105104,  105103,  105100,  105101
     484,  105115,  105114,  105111,  105112,  105103,  105102,  105099,  105100
     485,  105114,  104894,  104909,  105111,  105102,  104893,  104908,  105099
     486,  105113,  105112,  105109,  105110,  105101,  105100,  105097,  105098
     487,  105112,  105111,  105108,  105109,  105100,  105099,  105096,  105097
     488,  105111,  104909,  104924,  105108,  105099,  104908,  104923,  105096
     489,  105110,  105109,  105105,  105106,  105098,  105097,  105093,  105094
     490,  105109,  105108,  105107,  105105,  105097,  105096,  105095,  105093
     491,  105108,  104924,  104939,  105107,  105096,  104923,  104938,  105095
     492,  104939,  104883,  105039,  105107,  104938,  104884,  105040,  105095
     493,  105107,  105039,  105024,  105105,  105095,  105040,  105025,  105093
     494,  105105,  105024,  105009,  105106,  105093,  105025,  105010,  105094
     495,  105008,  104993,  105122,  105118,  105009,  104994,  105110,  105106
     496,  104993,  104978,  105125,  105122,  104994,  104979,  105113,  105110
     497,  104978,  104963,  105128,  105125,  104979,  104964,  105116,  105113
     498,  104963,  104798,  104830,  105128,  104964,  104799,  104829,  105116
     499,  104830,  104845,  105127,  105128,  104829,  104844,  105115,  105116
     500,  104845,  104860,  105126,  105127,  104844,  104859,  105114,  105115
     501,  104860,  104815,  104895,  105126,  104859,  104814,  104894,  105114
     502,  105128,  105127,  105124,  105125,  105116,  105115,  105112,  105113
     503,  105127,  105126,  105123,  105124,  105115,  105114,  105111,  105112
     504,  105126,  104895,  104910,  105123,  105114,  104894,  104909,  105111
     505,  105125,  105124,  105121,  105122,  105113,  105112,  105109,  105110
     506,  105124,  105123,  105120,  105121,  105112,  105111,  105108,  105109
     507,  105123,  104910,  104925,  105120,  105111,  104909,  104924,  105108
     508,  105122,  105121,  105117,  105118,  105110,  105109,  105105,  105106
     509,  105121,  105120,  105119,  105117,  105109,  105108,  105107,  105105
     510,  105120,  104925,  104940,  105119,  105108,  104924,  104939,  105107
     511,  104940,  104882,  105038,  105119,  104939,  104883,  105039,  105107
     512,  105119,  105038,  105023,  105117,  105107,  105039,  105024,  105105
     513,  105117,  105023,  105008,  105118,  105105,  105024,  105009,  105106
     514,  105007,  104992,  105134,  105130,  105008,  104993,  105122,  105118
     515,  104992,  104977,  105137,  105134,  104993,  104978,  105125,  105122
     516,  104977,  104962,  105140,  105137,  104978,  104963,  105128,  105125
     517,  104962,  104797,  104831,  105140,  104963,  104798,  104830,  105128
     518,  104831,  104846,  105139,  105140,  104830,  104845,  105127,  105128
     519,  104846,  104861,  105138,  105139,  104845,  104860,  105126,  105127
     520,  104861,  104816,  104896,  105138,  104860,  104815,  104895,  105126
     521,  105140,  105139,  105136,  105137,  105128,  105127,  105124,  105125
     522,  105139,  105138,  105135,  105136,  105127,  105126,  105123,  105124
     523,  105138,  104896,  104911,  105135,  105126,  104895,  104910,  105123
     524,  105137,  105136,  105133,  105134,  105125,  105124,  105121,  105122
     525,  105136,  105135,  105132,  105133,  105124,  105123,  105120,  105121
     526,  105135,  104911,  104926,  105132,  105123,  104910,  104925,  105120
     527,  105134,  105133,  105129,  105130,  105122,  105121,  105117,  105118
     528,  105133,  105132,  105131,  105129,  105121,  105120,  105119,  105117
     529,  105132,  104926,  104941,  105131,  105120,  104925,  104940,  105119
     530,  104941,  104881,  105037,  105131,  104940,  104882,  105038,  105119
     531,  105131,  105037,  105022,  105129,  105119,  105038,  105023,  105117
     532,  105129,  105022,  105007,  105130,  105117,  105023,  105008,  105118
     533,  105006,  104991,  105146,  105142,  105007,  104992,  105134,  105130
     534,  104991,  104976,  105149,  105146,  104992,  104977,  105137,  105134
     535,  104976,  104961,  105152,  105149,  104977,  104962,  105140,  105137
     536,  104961,  104796,  104832,  105152,  104962,  104797,  104831,  105140
     537,  104832,  104847,  105151,  105152,  104831,  104846,  105139,  105140
     538,  104847,  104862,  105150,  105151,  104846,  104861,  105138,  105139
     539,  104862,  104817,  104897,  105150,  104861,  104816,  104896,  105138
     540,  105152,  105151,  105148,  105149,  105140,  105139,  105136,  105137
     541,  105151,  105150,  105147,  105148,  105139,  105138,  105135,  105136
     542,  105150,  104897,  104912,  105147,  105138,  104896,  104911,  105135
     543,  105149,  105148,  105145,  105146,  105137,  105136,  105133,  105134
     544,  105148,  105147,  105144,  105145,  105136,  105135,  105132,  105133
     545,  105147,  104912,  104927,  105144,  105135,  104911,  104926,  105132
     546,  105146,  105145,  105141,  105142,  105134,  105133,  105129,  105130
     547,  105145,  105144,  105143,  105141,  105133,  105132,  105131,  105129
     548,  105144,  104927,  104942,  105143,  105132,  104926,  104941,  105131
     549,  104942,  104880,  105036,  105143,  104941,  104881,  105037,  105131
     550,  105143,  105036,  105021,  105141,  105131,  105037,  105022,  105129
     551,  105141,  105021,  105006,  105142,  105129,  105022,  105007,  105130
     552,  105005,  104990,  105158,  105154,  105006,  104991,  105146,  105142
     553,  104990,  104975,  105161,  105158,  104991,  104976,  105149,  105146
     554,  104975,  104960,  105164,  105161,  104976,  104961,  105152,  105149
     555,  104960,  104795,  104833,  105164,  104961,  104796,  104832,  105152
     556,  104833,  104848,  105163,  105164,  104832,  104847,  105151,  105152
     557,  104848,  104863,  105162,  105163,  104847,  104862,  105150,  105151
     558,  104863,  104818,  104898,  105162,  104862,  104817,  104897,  105150
     559,  105164,  105163,  105160,  105161,  105152,  105151,  105148,  105149
     560,  105163,  105162,  105159,  105160,  105151,  105150,  105147,  105148
     561,  105162,  104898,  104913,  105159,  105150,  104897,  104912,  105147
     562,  105161,  105160,  105157,  105158,  105149,  105148,  105145,  105146
     563,  105160,  105159,  105156,  105157,  105148,  105147,  105144,  105145
     564,  105159,  104913,  104928,  105156,  105147,  104912,  104927,  105144
     565,  105158,  105157,  105153,  105154,  105146,  105145,  105141,  105142
     566,  105157,  105156,  105155,  105153,  105145,  105144,  105143,  105141
     567,  105156,  104928,  104943,  105155,  105144,  104927,  104942,  105143
     568,  104943,  104879,  105035,  105155,  104942,  104880,  105036,  105143
     569,  105155,  105035,  105020,  105153,  105143,  105036,  105021,  105141
     570,  105153,  105020,  105005,  105154,  105141,  105021,  105006,  105142
     571,  105004,  104989,  105170,  105166,  105005,  104990,  105158,  105154
     572,  104989,  104974,  105173,  105170,  104990,  104975,  105161,  105158
     573,  104974,  104959,  105176,  105173,  104975,  104960,  105164,  105161
     574,  104959,  104794,  104834,  105176,  104960,  104795,  104833,  105164
     575,  104834,  104849,  105175,  105176,  104833,  104848,  105163,  105164
     576,  104849,  104864,  105174,  105175,  104848,  104863,  105162,  105163
     577,  104864,  104819,  104899,  105174,  104863,  104818,  104898,  105162
     578,  105176,  105175,  105172,  105173,  105164,  105163,  105160,  105161
     579,  105175,  105174,  105171,  105172,  105163,  105162,  105159,  105160
     580,  105174,  104899,  104914,  105171,  105162,  104898,  104913,  105159
     581,  105173,  105172,  105169,  105170,  105161,  105160,  105157,  105158
     582,  105172,  105171,  105168,  105169,  105160,  105159,  105156,  105157
     583,  105171,  104914,  104929,  105168,  105159,  104913,  104928,  105156
     584,  105170,  105169,  105165,  105166,  105158,  105157,  105153,  105154
     585,  105169,  105168,  105167,  105165,  105157,  105156,  105155,  105153
     586,  105168,  104929,  104944,  105167,  105156,  104928,  104943,  105155
     587,  104944,  104878,  105034,  105167,  104943,  104879,  105035,  105155
     588,  105167,  105034,  105019,  105165,  105155,  105035,  105020,  105153
     589,  105165,  105019,  105004,  105166,  105153,  105020,  105005,  105154
     590,  105003,  104988,  105182,  105178,  105004,  104989,  105170,  105166
     591,  104988,  104973,  105185,  105182,  104989,  104974,  105173,  105170
     592,  104973,  104958,  105188,  105185,  104974,  104959,  105176,  105173
     593,  104958,  104793,  104835,  105188,  104959,  104794,  104834,  105176
     594,  104835,  104850,  105187,  105188,  104834,  104849,  105175,  105176
     595,  104850,  104865,  105186,  105187,  104849,  104864,  105174,  105175
     596,  104865,  104820,  104900,  105186,  104864,  104819,  104899,  105174
     597,  105188,  105187,  105184,  105185,  105176,  105175,  105172,  105173
     598,  105187,  105186,  105183,  105184,  105175,  105174,  105171,  105172
     599,  105186,  104900,  104915,  105183,  105174,  104899,  104914,  105171
     600,  105185,  105184,  105181,  105182,  105173,  105172,  105169,  105170
     601,  105184,  105183,  105180,  105181,  105172,  105171,  105168,  105169
     602,  105183,  104915,  104930,  105180,  105171,  104914,  104929,  105168
     603,  105182,  105181,  105177,  105178,  105170,  105169,  105165,  105166
     604,  105181,  105180,  105179,  105177,  105169,  105168,  105167,  105165
     605,  105180,  104930,  104945,  105179,  105168,  104929,  104944,  105167
     606,  104945,  104877,  105033,  105179,  104944,  104878,  105034,  105167
     607,  105179,  105033,  105018,  105177,  105167,  105034,  105019,  105165
     608,  105177,  105018,  105003,  105178,  105165,  105019,  105004,  105166
     609,  105002,  104987,  105194,  105190,  105003,  104988,  105182,  105178
     610,  104987,  104972,  105197,  105194,  104988,  104973,  105185,  105182
     611,  104972,  104957,  105200,  105197,  104973,  104958,  105188,  105185
     612,  104957,  104792,  104836,  105200,  104958,  104793,  104835,  105188
     613,  104836,  104851,  105199,  105200,  104835,  104850,  105187,  105188
     614,  104851,  104866,  105198,  105199,  104850,  104865,  105186,  105187
     615,  104866,  104821,  104901,  105198,  104865,  104820,  104900,  105186
     616,  105200,  105199,  105196,  105197,  105188,  105187,  105184,  105185
     617,  105199,  105198,  105195,  105196,  105187,  105186,  105183,  105184
     618,  105198,  104901,  104916,  105195,  105186,  104900,  104915,  105183
     619,  105197,  105196,  105193,  105194,  105185,  105184,  105181,  105182
     620,  105196,  105195,  105192,  105193,  105184,  105183,  105180,  105181
     621,  105195,  104916,  104931,  105192,  105183,  104915,  104930,  105180
     622,  105194,  105193,  105189,  105190,  105182,  105181,  105177,  105178
     623,  105193,  105192,  105191,  105189,  105181,  105180,  105179,  105177
     624,  105192,  104931,  104946,  105191,  105180,  104930,  104945,  105179
     625,  104946,  104876,  105032,  105191,  104945,  104877,  105033,  105179
     626,  105191,  105032,  105017,  105189,  105179,  105033,  105018,  105177
     627,  105189,  105017,  105002,  105190,  105177,  105018,  105003,  105178
     628,  105001,  104986,  105206,  105202,  105002,  104987,  105194,  105190
     629,  104986,  104971,  105209,  105206,  104987,  104972,  105197,  105194
     630,  104971,  104956,  105212,  105209,  104972,  104957,  105200,  105197
     631,  104956,  104791,  104837,  105212,  104957,  104792,  104836,  105200
     632,  104837,  104852,  105211,  105212,  104836,  104851,  105199,  105200
     633,  104852,  104867,  105210,  105211,  104851,  104866,  105198,  105199
     634,  104867,  104822,  104902,  105210,  104866,  104821,  104901,  105198
     635,  105212,  105211,  105208,  105209,  105200,  105199,  105196,  105197
     636,  105211,  105210,  105207,  105208,  105199,  105198,  105195,  105196
     637,  105210,  104902,  104917,  105207,  105198,  104901,  104916,  105195
     638,  105209,  105208,  105205,  105206,  105197,  105196,  105193,  105194
     639,  105208,  105207,  105204,  105205,  105196,  105195,  105192,  105193
     640,  105207,  104917,  104932,  105204,  105195,  104916,  104931,  105192
     641,  105206,  105205,  105201,  105202,  105194,  105193,  105189,  105190
     642,  105205,  105204,  105203,  105201,  105193,  105192,  105191,  105189
     643,  105204,  104932,  104947,  105203,  105192,  104931,  104946,  105191
     644,  104947,  104875,  105031,  105203,  104946,  104876,  105032,  105191
     645,  105203,  105031,  105016,  105201,  105191,  105032,  105017,  105189
     646,  105201,  105016,  105001,  105202,  105189,  105017,  105002,  105190
     647,  105000,  104985,  105218,  105214,  105001,  104986,  105206,  105202
     648,  104985,  104970,  105221,  105218,  104986,  104971,  105209,  105206
     649,  104970,  104955,  105224,  105221,  104971,  104956,  105212,  105209
     650,  104955,  104790,  104838,  105224,  104956,  104791,  104837,  105212
     651,  104838,  104853,  105223,  105224,  104837,  104852,  105211,  105212
     652,  104853,  104868,  105222,  105223,  104852,  104867,  105210,  105211
     653,  104868,  104823,  104903,  105222,  104867,  104822,  104902,  105210
     654,  105224,  105223,  105220,  105221,  105212,  105211,  105208,  105209
     655,  105223,  105222,  105219,  105220,  105211,  105210,  105207,  105208
     656,  105222,  104903,  104918,  105219,  105210,  104902,  104917,  105207
     657,  105221,  105220,  105217,  105218,  105209,  105208,  105205,  105206
     658,  105220,  105219,  105216,  105217,  105208,  105207,  105204,  105205
     659,  105219,  104918,  104933,  105216,  105207,  104917,  104932,  105204
     660,  105218,  105217,  105213,  105214,  105206,  105205,  105201,  105202
     661,  105217,  105216,  105215,  105213,  105205,  105204,  105203,  105201
     662,  105216,  104933,  104948,  105215,  105204,  104932,  104947,  105203
     663,  104948,  104874,  105030,  105215,  104947,  104875,  105031,  105203
     664,  105215,  105030,  105015,  105213,  105203,  105031,  105016,  105201
     665,  105213,  105015,  105000,  105214,  105201,  105016,  105001,  105202
     666,  104952,  104951,  105230,  105226,  105000,  104985,  105218,  105214
     667,  104951,  104950,  105233,  105230,  104985,  104970,  105221,  105218
     668,  104950,  104949,  105236,  105233,  104970,  104955,  105224,  105221
     669,  104949,  104789,  104806,  105236,  104955,  104790,  104838,  105224
     670,  104806,  104807,  105235,  105236,  104838,  104853,  105223,  105224
     671,  104807,  104808,  105234,  105235,  104853,  104868,  105222,  105223
     672,  104808,  104805,  104873,  105234,  104868,  104823,  104903,  105222
     673,  105236,  105235,  105232,  105233,  105224,  105223,  105220,  105221
     674,  105235,  105234,  105231,  105232,  105223,  105222,  105219,  105220
     675,  105234,  104873,  104872,  105231,  105222,  104903,  104918,  105219
     676,  105233,  105232,  105229,  105230,  105221,  105220,  105217,  105218
     677,  105232,  105231,  105228,  105229,  105220,  105219,  105216,  105217
     678,  105231,  104872,  104871,  105228,  105219,  104918,  104933,  105216
     679,  105230,  105229,  105225,  105226,  105218,  105217,  105213,  105214
     680,  105229,  105228,  105227,  105225,  105217,  105216,  105215,  105213
     681,  105228,  104871,  104870,  105227,  105216,  104933,  104948,  105215
     682,  104870,  104869,  104954,  105227,  104948,  104874,  105030,  105215
     683,  105227,  104954,  104953,  105225,  105215,  105030,  105015,  105213
     684,  105225,  104953,  104952,  105226,  105213,  105015,  105000,  105214
     685,  104763,  104750,  104748,  104754,  104306,  104299,  104298,  104301
     686,  104764,  104752,  104750,  104763,  104305,  104300,  104299,  104306
     687,  104733,  104726,  104752,  104764,  104291,  104290,  104300,  104305
     688,  104762,  104731,  104733,  104764,  104312,  104292,  104291,  104305
     689,  104761,  104762,  104764,  104763,  104311,  104312,  104305,  104306
     690,  104753,  104761,  104763,  104754,  104304,  104311,  104306,  104301
     691,  104760,  104729,  104731,  104762,  104310,  104293,  104292,  104312
     692,  104759,  104760,  104762,  104761,  104309,  104310,  104312,  104311
     693,  104755,  104759,  104761,  104753,  104303,  104309,  104311,  104304
     694,  104758,  104727,  104729,  104760,  104308,  104294,  104293,  104310
     695,  104757,  104758,  104760,  104759,  104307,  104308,  104310,  104309
     696,  104756,  104757,  104759,  104755,  104302,  104307,  104309,  104303
     697,  104718,  104712,  104727,  104758,  104289,  104286,  104294,  104308
     698,  104716,  104718,  104758,  104757,  104288,  104289,  104308,  104307
     699,  104714,  104716,  104757,  104756,  104287,  104288,  104307,  104302
     700,  104742,  104707,  104714,  104756,  104295,  104285,  104287,  104302
     701,  104744,  104742,  104756,  104755,  104296,  104295,  104302,  104303
     702,  104746,  104744,  104755,  104753,  104297,  104296,  104303,  104304
     703,  104748,  104746,  104753,  104754,  104298,  104297,  104304,  104301
     704,  104775,  104749,  104747,  104766,  104763,  104750,  104748,  104754
     705,  104776,  104751,  104749,  104775,  104764,  104752,  104750,  104763
     706,  104734,  104725,  104751,  104776,  104733,  104726,  104752,  104764
     707,  104774,  104732,  104734,  104776,  104762,  104731,  104733,  104764
     708,  104773,  104774,  104776,  104775,  104761,  104762,  104764,  104763
     709,  104765,  104773,  104775,  104766,  104753,  104761,  104763,  104754
     710,  104772,  104730,  104732,  104774,  104760,  104729,  104731,  104762
     711,  104771,  104772,  104774,  104773,  104759,  104760,  104762,  104761
     712,  104767,  104771,  104773,  104765,  104755,  104759,  104761,  104753
     713,  104770,  104728,  104730,  104772,  104758,  104727,  104729,  104760
     714,  104769,  104770,  104772,  104771,  104757,  104758,  104760,  104759
     715,  104768,  104769,  104771,  104767,  104756,  104757,  104759,  104755
     716,  104719,  104713,  104728,  104770,  104718,  104712,  104727,  104758
     717,  104717,  104719,  104770,  104769,  104716,  104718,  104758,  104757
     718,  104715,  104717,  104769,  104768,  104714,  104716,  104757,  104756
     719,  104741,  104706,  104715,  104768,  104742,  104707,  104714,  104756
     720,  104743,  104741,  104768,  104767,  104744,  104742,  104756,  104755
     721,  104745,  104743,  104767,  104765,  104746,  104744,  104755,  104753
     722,  104747,  104745,  104765,  104766,  104748,  104746,  104753,  104754
     723,  104787,  104739,  104738,  104778,  104775,  104749,  104747,  104766
     724,  104788,  104740,  104739,  104787,  104776,  104751,  104749,  104775
     725,  104721,  104720,  104740,  104788,  104734,  104725,  104751,  104776
     726,  104786,  104722,  104721,  104788,  104774,  104732,  104734,  104776
     727,  104785,  104786,  104788,  104787,  104773,  104774,  104776,  104775
     728,  104777,  104785,  104787,  104778,  104765,  104773,  104775,  104766
     729,  104784,  104723,  104722,  104786,  104772,  104730,  104732,  104774
     730,  104783,  104784,  104786,  104785,  104771,  104772,  104774,  104773
     731,  104779,  104783,  104785,  104777,  104767,  104771,  104773,  104765
     732,  104782,  104724,  104723,  104784,  104770,  104728,  104730,  104772
     733,  104781,  104782,  104784,  104783,  104769,  104770,  104772,  104771
     734,  104780,  104781,  104783,  104779,  104768,  104769,  104771,  104767
     735,  104711,  104708,  104724,  104782,  104719,  104713,  104728,  104770
     736,  104710,  104711,  104782,  104781,  104717,  104719,  104770,  104769
     737,  104709,  104710,  104781,  104780,  104715,  104717,  104769,  104768
     738,  104735,  104705,  104709,  104780,  104741,  104706,  104715,  104768
     739,  104736,  104735,  104780,  104779,  104743,  104741,  104768,  104767
     740,  104737,  104736,  104779,  104777,  104745,  104743,  104767,  104765
     741,  104738,  104737,  104777,  104778,  104747,  104745,  104765,  104766
     742,  104306,  104299,  104298,  104301,  104547,  104511,  104498,  104537
     743,  104305,  104300,  104299,  104306,  104548,  104524,  104511,  104547
     744,  104291,  104290,  104300,  104305,  104452,  104384,  104524,  104548
     745,  104312,  104292,  104291,  104305,  104546,  104439,  104452,  104548
     746,  104311,  104312,  104305,  104306,  104545,  104546,  104548,  104547
     747,  104304,  104311,  104306,  104301,  104538,  104545,  104547,  104537
     748,  104310,  104293,  104292,  104312,  104544,  104426,  104439,  104546
     749,  104309,  104310,  104312,  104311,  104543,  104544,  104546,  104545
     750,  104303,  104309,  104311,  104304,  104539,  104543,  104545,  104538
     751,  104308,  104294,  104293,  104310,  104542,  104413,  104426,  104544
     752,  104307,  104308,  104310,  104309,  104541,  104542,  104544,  104543
     753,  104302,  104307,  104309,  104303,  104540,  104541,  104543,  104539
     754,  104289,  104286,  104294,  104308,  104382,  104340,  104413,  104542
     755,  104288,  104289,  104308,  104307,  104369,  104382,  104542,  104541
     756,  104287,  104288,  104307,  104302,  104356,  104369,  104541,  104540
     757,  104295,  104285,  104287,  104302,  104459,  104314,  104356,  104540
     758,  104296,  104295,  104302,  104303,  104472,  104459,  104540,  104539
     759,  104297,  104296,  104303,  104304,  104485,  104472,  104539,  104538
     760,  104298,  104297,  104304,  104301,  104498,  104485,  104538,  104537
     761,  104547,  104511,  104498,  104537,  104559,  104512,  104499,  104549
     762,  104548,  104524,  104511,  104547,  104560,  104525,  104512,  104559
     763,  104452,  104384,  104524,  104548,  104451,  104385,  104525,  104560
     764,  104546,  104439,  104452,  104548,  104558,  104438,  104451,  104560
     765,  104545,  104546,  104548,  104547,  104557,  104558,  104560,  104559
     766,  104538,  104545,  104547,  104537,  104550,  104557,  104559,  104549
     767,  104544,  104426,  104439,  104546,  104556,  104425,  104438,  104558
     768,  104543,  104544,  104546,  104545,  104555,  104556,  104558,  104557
     769,  104539,  104543,  104545,  104538,  104551,  104555,  104557,  104550
     770,  104542,  104413,  104426,  104544,  104554,  104412,  104425,  104556
     771,  104541,  104542,  104544,  104543,  104553,  104554,  104556,  104555
     772,  104540,  104541,  104543,  104539,  104552,  104553,  104555,  104551
     773,  104382,  104340,  104413,  104542,  104381,  104339,  104412,  104554
     774,  104369,  104382,  104542,  104541,  104368,  104381,  104554,  104553
     775,  104356,  104369,  104541,  104540,  104355,  104368,  104553,  104552
     776,  104459,  104314,  104356,  104540,  104460,  104315,  104355,  104552
     777,  104472,  104459,  104540,  104539,  104473,  104460,  104552,  104551
     778,  104485,  104472,  104539,  104538,  104486,  104473,  104551,  104550
     779,  104498,  104485,  104538,  104537,  104499,  104486,  104550,  104549
     780,  104559,  104512,  104499,  104549,  104571,  104513,  104500,  104561
     781,  104560,  104525,  104512,  104559,  104572,  104526,  104513,  104571
     782,  104451,  104385,  104525,  104560,  104450,  104386,  104526,  104572
     783,  104558,  104438,  104451,  104560,  104570,  104437,  104450,  104572
     784,  104557,  104558,  104560,  104559,  104569,  104570,  104572,  104571
     785,  104550,  104557,  104559,  104549,  104562,  104569,  104571,  104561
     786,  104556,  104425,  104438,  104558,  104568,  104424,  104437,  104570
     787,  104555,  104556,  104558,  104557,  104567,  104568,  104570,  104569
     788,  104551,  104555,  104557,  104550,  104563,  104567,  104569,  104562
     789,  104554,  104412,  104425,  104556,  104566,  104411,  104424,  104568
     790,  104553,  104554,  104556,  104555,  104565,  104566,  104568,  104567
     791,  104552,  104553,  104555,  104551,  104564,  104565,  104567,  104563
     792,  104381,  104339,  104412,  104554,  104380,  104338,  104411,  104566
     793,  104368,  104381,  104554,  104553,  104367,  104380,  104566,  104565
     794,  104355,  104368,  104553,  104552,  104354,  104367,  104565,  104564
     795,  104460,  104315,  104355,  104552,  104461,  104316,  104354,  104564
     796,  104473,  104460,  104552,  104551,  104474,  104461,  104564,  104563
     797,  104486,  104473,  104551,  104550,  104487,  104474,  104563,  104562
     798,  104499,  104486,  104550,  104549,  104500,  104487,  104562,  104561
     799,  104571,  104513,  104500,  104561,  104583,  104514,  104501,  104573
     800,  104572,  104526,  104513,  104571,  104584,  104527,  104514,  104583
     801,  104450,  104386,  104526,  104572,  104449,  104387,  104527,  104584
     802,  104570,  104437,  104450,  104572,  104582,  104436,  104449,  104584
     803,  104569,  104570,  104572,  104571,  104581,  104582,  104584,  104583
     804,  104562,  104569,  104571,  104561,  104574,  104581,  104583,  104573
     805,  104568,  104424,  104437,  104570,  104580,  104423,  104436,  104582
     806,  104567,  104568,  104570,  104569,  104579,  104580,  104582,  104581
     807,  104563,  104567,  104569,  104562,  104575,  104579,  104581,  104574
     808,  104566,  104411,  104424,  104568,  104578,  104410,  104423,  104580
     809,  104565,  104566,  104568,  104567,  104577,  104578,  104580,  104579
     810,  104564,  104565,  104567,  104563,  104576,  104577,  104579,  104575
     811,  104380,  104338,  104411,  104566,  104379,  104337,  104410,  104578
     812,  104367,  104380,  104566,  104565,  104366,  104379,  104578,  104577
     813,  104354,  104367,  104565,  104564,  104353,  104366,  104577,  104576
     814,  104461,  104316,  104354,  104564,  104462,  104317,  104353,  104576
     815,  104474,  104461,  104564,  104563,  104475,  104462,  104576,  104575
     816,  104487,  104474,  104563,  104562,  104488,  104475,  104575,  104574
     817,  104500,  104487,  104562,  104561,  104501,  104488,  104574,  104573
     818,  104583,  104514,  104501,  104573,  104595,  104515,  104502,  104585
     819,  104584,  104527,  104514,  104583,  104596,  104528,  104515,  104595
     820,  104449,  104387,  104527,  104584,  104448,  104388,  104528,  104596
     821,  104582,  104436,  104449,  104584,  104594,  104435,  104448,  104596
     822,  104581,  104582,  104584,  104583,  104593,  104594,  104596,  104595
     823,  104574,  104581,  104583,  104573,  104586,  104593,  104595,  104585
     824,  104580,  104423,  104436,  104582,  104592,  104422,  104435,  104594
     825,  104579,  104580,  104582,  104581,  104591,  104592,  104594,  104593
     826,  104575,  104579,  104581,  104574,  104587,  104591,  104593,  104586
     827,  104578,  104410,  104423,  104580,  104590,  104409,  104422,  104592
     828,  104577,  104578,  104580,  104579,  104589,  104590,  104592,  104591
     829,  104576,  104577,  104579,  104575,  104588,  104589,  104591,  104587
     830,  104379,  104337,  104410,  104578,  104378,  104336,  104409,  104590
     831,  104366,  104379,  104578,  104577,  104365,  104378,  104590,  104589
     832,  104353,  104366,  104577,  104576,  104352,  104365,  104589,  104588
     833,  104462,  104317,  104353,  104576,  104463,  104318,  104352,  104588
     834,  104475,  104462,  104576,  104575,  104476,  104463,  104588,  104587
     835,  104488,  104475,  104575,  104574,  104489,  104476,  104587,  104586
     836,  104501,  104488,  104574,  104573,  104502,  104489,  104586,  104585
     837,  104595,  104515,  104502,  104585,  104607,  104516,  104503,  104597
     838,  104596,  104528,  104515,  104595,  104608,  104529,  104516,  104607
     839,  104448,  104388,  104528,  104596,  104447,  104389,  104529,  104608
     840,  104594,  104435,  104448,  104596,  104606,  104434,  104447,  104608
     841,  104593,  104594,  104596,  104595,  104605,  104606,  104608,  104607
     842,  104586,  104593,  104595,  104585,  104598,  104605,  104607,  104597
     843,  104592,  104422,  104435,  104594,  104604,  104421,  104434,  104606
     844,  104591,  104592,  104594,  104593,  104603,  104604,  104606,  104605
     845,  104587,  104591,  104593,  104586,  104599,  104603,  104605,  104598
     846,  104590,  104409,  104422,  104592,  104602,  104408,  104421,  104604
     847,  104589,  104590,  104592,  104591,  104601,  104602,  104604,  104603
     848,  104588,  104589,  104591,  104587,  104600,  104601,  104603,  104599
     849,  104378,  104336,  104409,  104590,  104377,  104335,  104408,  104602
     850,  104365,  104378,  104590,  104589,  104364,  104377,  104602,  104601
     851,  104352,  104365,  104589,  104588,  104351,  104364,  104601,  104600
     852,  104463,  104318,  104352,  104588,  104464,  104319,  104351,  104600
     853,  104476,  104463,  104588,  104587,  104477,  104464,  104600,  104599
     854,  104489,  104476,  104587,  104586,  104490,  104477,  104599,  104598
     855,  104502,  104489,  104586,  104585,  104503,  104490,  104598,  104597
     856,  104607,  104516,  104503,  104597,  104619,  104517,  104504,  104609
     857,  104608,  104529,  104516,  104607,  104620,  104530,  104517,  104619
     858,  104447,  104389,  104529,  104608,  104446,  104390,  104530,  104620
     859,  104606,  104434,  104447,  104608,  104618,  104433,  104446,  104620
     860,  104605,  104606,  104608,  104607,  104617,  104618,  104620,  104619
     861,  104598,  104605,  104607,  104597,  104610,  104617,  104619,  104609
     862,  104604,  104421,  104434,  104606,  104616,  104420,  104433,  104618
     863,  104603,  104604,  104606,  104605,  104615,  104616,  104618,  104617
     864,  104599,  104603,  104605,  104598,  104611,  104615,  104617,  104610
     865,  104602,  104408,  104421,  104604,  104614,  104407,  104420,  104616
     866,  104601,  104602,  104604,  104603,  104613,  104614,  104616,  104615
     867,  104600,  104601,  104603,  104599,  104612,  104613,  104615,  104611
     868,  104377,  104335,  104408,  104602,  104376,  104334,  104407,  104614
     869,  104364,  104377,  104602,  104601,  104363,  104376,  104614,  104613
     870,  104351,  104364,  104601,  104600,  104350,  104363,  104613,  104612
     871,  104464,  104319,  104351,  104600,  104465,  104320,  104350,  104612
     872,  104477,  104464,  104600,  104599,  104478,  104465,  104612,  104611
     873,  104490,  104477,  104599,  104598,  104491,  104478,  104611,  104610
     874,  104503,  104490,  104598,  104597,  104504,  104491,  104610,  104609
     875,  104619,  104517,  104504,  104609,  104631,  104518,  104505,  104621
     876,  104620,  104530,  104517,  104619,  104632,  104531,  104518,  104631
     877,  104446,  104390,  104530,  104620,  104445,  104391,  104531,  104632
     878,  104618,  104433,  104446,  104620,  104630,  104432,  104445,  104632
     879,  104617,  104618,  104620,  104619,  104629,  104630,  104632,  104631
     880,  104610,  104617,  104619,  104609,  104622,  104629,  104631,  104621
     881,  104616,  104420,  104433,  104618,  104628,  104419,  104432,  104630
     882,  104615,  104616,  104618,  104617,  104627,  104628,  104630,  104629
     883,  104611,  104615,  104617,  104610,  104623,  104627,  104629,  104622
     884,  104614,  104407,  104420,  104616,  104626,  104406,  104419,  104628
     885,  104613,  104614,  104616,  104615,  104625,  104626,  104628,  104627
     886,  104612,  104613,  104615,  104611,  104624,  104625,  104627,  104623
     887,  104376,  104334,  104407,  104614,  104375,  104333,  104406,  104626
     888,  104363,  104376,  104614,  104613,  104362,  104375,  104626,  104625
     889,  104350,  104363,  104613,  104612,  104349,  104362,  104625,  104624
     890,  104465,  104320,  104350,  104612,  104466,  104321,  104349,  104624
     891,  104478,  104465,  104612,  104611,  104479,  104466,  104624,  104623
     892,  104491,  104478,  104611,  104610,  104492,  104479,  104623,  104622
     893,  104504,  104491,  104610,  104609,  104505,  104492,  104622,  104621
     894,  104631,  104518,  104505,  104621,  104643,  104519,  104506,  104633
     895,  104632,  104531,  104518,  104631,  104644,  104532,  104519,  104643
     896,  104445,  104391,  104531,  104632,  104444,  104392,  104532,  104644
     897,  104630,  104432,  104445,  104632,  104642,  104431,  104444,  104644
     898,  104629,  104630,  104632,  104631,  104641,  104642,  104644,  104643
     899,  104622,  104629,  104631,  104621,  104634,  104641,  104643,  104633
     900,  104628,  104419,  104432,  104630,  104640,  104418,  104431,  104642
     901,  104627,  104628,  104630,  104629,  104639,  104640,  104642,  104641
     902,  104623,  104627,  104629,  104622,  104635,  104639,  104641,  104634
     903,  104626,  104406,  104419,  104628,  104638,  104405,  104418,  104640
     904,  104625,  104626,  104628,  104627,  104637,  104638,  104640,  104639
     905,  104624,  104625,  104627,  104623,  104636,  104637,  104639,  104635
     906,  104375,  104333,  104406,  104626,  104374,  104332,  104405,  104638
     907,  104362,  104375,  104626,  104625,  104361,  104374,  104638,  104637
     908,  104349,  104362,  104625,  104624,  104348,  104361,  104637,  104636
     909,  104466,  104321,  104349,  104624,  104467,  104322,  104348,  104636
     910,  104479,  104466,  104624,  104623,  104480,  104467,  104636,  104635
     911,  104492,  104479,  104623,  104622,  104493,  104480,  104635,  104634
     912,  104505,  104492,  104622,  104621,  104506,  104493,  104634,  104633
     913,  104643,  104519,  104506,  104633,  104655,  104520,  104507,  104645
     914,  104644,  104532,  104519,  104643,  104656,  104533,  104520,  104655
     915,  104444,  104392,  104532,  104644,  104443,  104393,  104533,  104656
     916,  104642,  104431,  104444,  104644,  104654,  104430,  104443,  104656
     917,  104641,  104642,  104644,  104643,  104653,  104654,  104656,  104655
     918,  104634,  104641,  104643,  104633,  104646,  104653,  104655,  104645
     919,  104640,  104418,  104431,  104642,  104652,  104417,  104430,  104654
     920,  104639,  104640,  104642,  104641,  104651,  104652,  104654,  104653
     921,  104635,  104639,  104641,  104634,  104647,  104651,  104653,  104646
     922,  104638,  104405,  104418,  104640,  104650,  104404,  104417,  104652
     923,  104637,  104638,  104640,  104639,  104649,  104650,  104652,  104651
     924,  104636,  104637,  104639,  104635,  104648,  104649,  104651,  104647
     925,  104374,  104332,  104405,  104638,  104373,  104331,  104404,  104650
     926,  104361,  104374,  104638,  104637,  104360,  104373,  104650,  104649
     927,  104348,  104361,  104637,  104636,  104347,  104360,  104649,  104648
     928,  104467,  104322,  104348,  104636,  104468,  104323,  104347,  104648
     929,  104480,  104467,  104636,  104635,  104481,  104468,  104648,  104647
     930,  104493,  104480,  104635,  104634,  104494,  104481,  104647,  104646
     931,  104506,  104493,  104634,  104633,  104507,  104494,  104646,  104645
     932,  104655,  104520,  104507,  104645,  104667,  104521,  104508,  104657
     933,  104656,  104533,  104520,  104655,  104668,  104534,  104521,  104667
     934,  104443,  104393,  104533,  104656,  104442,  104394,  104534,  104668
     935,  104654,  104430,  104443,  104656,  104666,  104429,  104442,  104668
     936,  104653,  104654,  104656,  104655,  104665,  104666,  104668,  104667
     937,  104646,  104653,  104655,  104645,  104658,  104665,  104667,  104657
     938,  104652,  104417,  104430,  104654,  104664,  104416,  104429,  104666
     939,  104651,  104652,  104654,  104653,  104663,  104664,  104666,  104665
     940,  104647,  104651,  104653,  104646,  104659,  104663,  104665,  104658
     941,  104650,  104404,  104417,  104652,  104662,  104403,  104416,  104664
     942,  104649,  104650,  104652,  104651,  104661,  104662,  104664,  104663
     943,  104648,  104649,  104651,  104647,  104660,  104661,  104663,  104659
     944,  104373,  104331,  104404,  104650,  104372,  104330,  104403,  104662
     945,  104360,  104373,  104650,  104649,  104359,  104372,  104662,  104661
     946,  104347,  104360,  104649,  104648,  104346,  104359,  104661,  104660
     947,  104468,  104323,  104347,  104648,  104469,  104324,  104346,  104660
     948,  104481,  104468,  104648,  104647,  104482,  104469,  104660,  104659
     949,  104494,  104481,  104647,  104646,  104495,  104482,  104659,  104658
     950,  104507,  104494,  104646,  104645,  104508,  104495,  104658,  104657
     951,  104667,  104521,  104508,  104657,  104679,  104522,  104509,  104669
     952,  104668,  104534,  104521,  104667,  104680,  104535,  104522,  104679
     953,  104442,  104394,  104534,  104668,  104441,  104395,  104535,  104680
     954,  104666,  104429,  104442,  104668,  104678,  104428,  104441,  104680
     955,  104665,  104666,  104668,  104667,  104677,  104678,  104680,  104679
     956,  104658,  104665,  104667,  104657,  104670,  104677,  104679,  104669
     957,  104664,  104416,  104429,  104666,  104676,  104415,  104428,  104678
     958,  104663,  104664,  104666,  104665,  104675,  104676,  104678,  104677
     959,  104659,  104663,  104665,  104658,  104671,  104675,  104677,  104670
     960,  104662,  104403,  104416,  104664,  104674,  104402,  104415,  104676
     961,  104661,  104662,  104664,  104663,  104673,  104674,  104676,  104675
     962,  104660,  104661,  104663,  104659,  104672,  104673,  104675,  104671
     963,  104372,  104330,  104403,  104662,  104371,  104329,  104402,  104674
     964,  104359,  104372,  104662,  104661,  104358,  104371,  104674,  104673
     965,  104346,  104359,  104661,  104660,  104345,  104358,  104673,  104672
     966,  104469,  104324,  104346,  104660,  104470,  104325,  104345,  104672
     967,  104482,  104469,  104660,  104659,  104483,  104470,  104672,  104671
     968,  104495,  104482,  104659,  104658,  104496,  104483,  104671,  104670
     969,  104508,  104495,  104658,  104657,  104509,  104496,  104670,  104669
     970,  104679,  104522,  104509,  104669,  104691,  104523,  104510,  104681
     971,  104680,  104535,  104522,  104679,  104692,  104536,  104523,  104691
     972,  104441,  104395,  104535,  104680,  104440,  104396,  104536,  104692
     973,  104678,  104428,  104441,  104680,  104690,  104427,  104440,  104692
     974,  104677,  104678,  104680,  104679,  104689,  104690,  104692,  104691
     975,  104670,  104677,  104679,  104669,  104682,  104689,  104691,  104681
     976,  104676,  104415,  104428,  104678,  104688,  104414,  104427,  104690
     977,  104675,  104676,  104678,  104677,  104687,  104688,  104690,  104689
     978,  104671,  104675,  104677,  104670,  104683,  104687,  104689,  104682
     979,  104674,  104402,  104415,  104676,  104686,  104401,  104414,  104688
     980,  104673,  104674,  104676,  104675,  104685,  104686,  104688,  104687
     981,  104672,  104673,  104675,  104671,  104684,  104685,  104687,  104683
     982,  104371,  104329,  104402,  104674,  104370,  104328,  104401,  104686
     983,  104358,  104371,  104674,  104673,  104357,  104370,  104686,  104685
     984,  104345,  104358,  104673,  104672,  104344,  104357,  104685,  104684
     985,  104470,  104325,  104345,  104672,  104471,  104326,  104344,  104684
     986,  104483,  104470,  104672,  104671,  104484,  104471,  104684,  104683
     987,  104496,  104483,  104671,  104670,  104497,  104484,  104683,  104682
     988,  104509,  104496,  104670,  104669,  104510,  104497,  104682,  104681
     989,  104691,  104523,  104510,  104681,  104703,  104454,  104455,  104693
     990,  104692,  104536,  104523,  104691,  104704,  104453,  104454,  104703
     991,  104440,  104396,  104536,  104692,  104397,  104383,  104453,  104704
     992,  104690,  104427,  104440,  104692,  104702,  104398,  104397,  104704
     993,  104689,  104690,  104692,  104691,  104701,  104702,  104704,  104703
     994,  104682,  104689,  104691,  104681,  104694,  104701,  104703,  104693
     995,  104688,  104414,  104427,  104690,  104700,  104399,  104398,  104702
     996,  104687,  104688,  104690,  104689,  104699,  104700,  104702,  104701
     997,  104683,  104687,  104689,  104682,  104695,  104699,  104701,  104694
     998,  104686,  104401,  104414,  104688,  104698,  104400,  104399,  104700
     999,  104685,  104686,  104688,  104687,  104697,  104698,  104700,  104699
    1000,  104684,  104685,  104687,  104683,  104696,  104697,  104699,  104695
    1001,  104370,  104328,  104401,  104686,  104343,  104327,  104400,  104698
    1002,  104357,  104370,  104686,  104685,  104342,  104343,  104698,  104697
    1003,  104344,  104357,  104685,  104684,  104341,  104342,  104697,  104696
    1004,  104471,  104326,  104344,  104684,  104458,  104313,  104341,  104696
    1005,  104484,  104471,  104684,  104683,  104457,  104458,  104696,  104695
    1006,  104497,  104484,  104683,  104682,  104456,  104457,  104695,  104694
    1007,  104510,  104497,  104682,  104681,  104455,  104456,  104694,  104693
    1008,  112143,  112029,  112241,  112243,  111655,  111654,  111769,  112010
    1009,  112124,  112143,  112243,  112247,  111656,  111655,  112010,  112011
    1010,  112105,  112124,  112247,  112251,  111657,  111656,  112011,  112012
    1011,  112250,  112086,  112105,  112251,  112013,  111658,  111657,  112012
    1012,  112252,  112067,  112086,  112250,  112014,  111659,  111658,  112013
    1013,  112253,  112048,  112067,  112252,  112015,  111660,  111659,  112014
    1014,  105280,  105256,  112048,  112253,  104806,  104789,  111660,  112015
    1015,  112249,  105299,  105280,  112253,  112016,  104807,  104806,  112015
    1016,  112248,  112249,  112253,  112252,  112017,  112016,  112015,  112014
    1017,  112246,  112248,  112252,  112250,  112018,  112017,  112014,  112013
    1018,  112247,  112246,  112250,  112251,  112011,  112018,  112013,  112012
    1019,  112245,  105318,  105299,  112249,  112019,  104808,  104807,  112016
    1020,  112244,  112245,  112249,  112248,  112020,  112019,  112016,  112017
    1021,  112242,  112244,  112248,  112246,  112021,  112020,  112017,  112018
    1022,  112243,  112242,  112246,  112247,  112010,  112021,  112018,  112011
    1023,  112184,  105261,  105318,  112245,  111766,  104805,  104808,  112019
    1024,  112203,  112184,  112245,  112244,  111767,  111766,  112019,  112020
    1025,  112222,  112203,  112244,  112242,  111768,  111767,  112020,  112021
    1026,  112241,  112222,  112242,  112243,  111769,  111768,  112021,  112010
    1027,  112144,  112030,  112240,  112255,  112143,  112029,  112241,  112243
    1028,  112125,  112144,  112255,  112259,  112124,  112143,  112243,  112247
    1029,  112106,  112125,  112259,  112263,  112105,  112124,  112247,  112251
    1030,  112262,  112087,  112106,  112263,  112250,  112086,  112105,  112251
    1031,  112264,  112068,  112087,  112262,  112252,  112067,  112086,  112250
    1032,  112265,  112049,  112068,  112264,  112253,  112048,  112067,  112252
    1033,  105281,  105255,  112049,  112265,  105280,  105256,  112048,  112253
    1034,  112261,  105300,  105281,  112265,  112249,  105299,  105280,  112253
    1035,  112260,  112261,  112265,  112264,  112248,  112249,  112253,  112252
    1036,  112258,  112260,  112264,  112262,  112246,  112248,  112252,  112250
    1037,  112259,  112258,  112262,  112263,  112247,  112246,  112250,  112251
    1038,  112257,  105319,  105300,  112261,  112245,  105318,  105299,  112249
    1039,  112256,  112257,  112261,  112260,  112244,  112245,  112249,  112248
    1040,  112254,  112256,  112260,  112258,  112242,  112244,  112248,  112246
    1041,  112255,  112254,  112258,  112259,  112243,  112242,  112246,  112247
    1042,  112183,  105262,  105319,  112257,  112184,  105261,  105318,  112245
    1043,  112202,  112183,  112257,  112256,  112203,  112184,  112245,  112244
    1044,  112221,  112202,  112256,  112254,  112222,  112203,  112244,  112242
    1045,  112240,  112221,  112254,  112255,  112241,  112222,  112242,  112243
    1046,  112145,  112031,  112239,  112267,  112144,  112030,  112240,  112255
    1047,  112126,  112145,  112267,  112271,  112125,  112144,  112255,  112259
    1048,  112107,  112126,  112271,  112275,  112106,  112125,  112259,  112263
    1049,  112274,  112088,  112107,  112275,  112262,  112087,  112106,  112263
    1050,  112276,  112069,  112088,  112274,  112264,  112068,  112087,  112262
    1051,  112277,  112050,  112069,  112276,  112265,  112049,  112068,  112264
    1052,  105282,  105254,  112050,  112277,  105281,  105255,  112049,  112265
    1053,  112273,  105301,  105282,  112277,  112261,  105300,  105281,  112265
    1054,  112272,  112273,  112277,  112276,  112260,  112261,  112265,  112264
    1055,  112270,  112272,  112276,  112274,  112258,  112260,  112264,  112262
    1056,  112271,  112270,  112274,  112275,  112259,  112258,  112262,  112263
    1057,  112269,  105320,  105301,  112273,  112257,  105319,  105300,  112261
    1058,  112268,  112269,  112273,  112272,  112256,  112257,  112261,  112260
    1059,  112266,  112268,  112272,  112270,  112254,  112256,  112260,  112258
    1060,  112267,  112266,  112270,  112271,  112255,  112254,  112258,  112259
    1061,  112182,  105263,  105320,  112269,  112183,  105262,  105319,  112257
    1062,  112201,  112182,  112269,  112268,  112202,  112183,  112257,  112256
    1063,  112220,  112201,  112268,  112266,  112221,  112202,  112256,  112254
    1064,  112239,  112220,  112266,  112267,  112240,  112221,  112254,  112255
    1065,  112146,  112032,  112238,  112279,  112145,  112031,  112239,  112267
    1066,  112127,  112146,  112279,  112283,  112126,  112145,  112267,  112271
    1067,  112108,  112127,  112283,  112287,  112107,  112126,  112271,  112275
    1068,  112286,  112089,  112108,  112287,  112274,  112088,  112107,  112275
    1069,  112288,  112070,  112089,  112286,  112276,  112069,  112088,  112274
    1070,  112289,  112051,  112070,  112288,  112277,  112050,  112069,  112276
    1071,  105283,  105253,  112051,  112289,  105282,  105254,  112050,  112277
    1072,  112285,  105302,  105283,  112289,  112273,  105301,  105282,  112277
    1073,  112284,  112285,  112289,  112288,  112272,  112273,  112277,  112276
    1074,  112282,  112284,  112288,  112286,  112270,  112272,  112276,  112274
    1075,  112283,  112282,  112286,  112287,  112271,  112270,  112274,  112275
    1076,  112281,  105321,  105302,  112285,  112269,  105320,  105301,  112273
    1077,  112280,  112281,  112285,  112284,  112268,  112269,  112273,  112272
    1078,  112278,  112280,  112284,  112282,  112266,  112268,  112272,  112270
    1079,  112279,  112278,  112282,  112283,  112267,  112266,  112270,  112271
    1080,  112181,  105264,  105321,  112281,  112182,  105263,  105320,  112269
    1081,  112200,  112181,  112281,  112280,  112201,  112182,  112269,  112268
    1082,  112219,  112200,  112280,  112278,  112220,  112201,  112268,  112266
    1083,  112238,  112219,  112278,  112279,  112239,  112220,  112266,  112267
    1084,  112147,  112033,  112237,  112291,  112146,  112032,  112238,  112279
    1085,  112128,  112147,  112291,  112295,  112127,  112146,  112279,  112283
    1086,  112109,  112128,  112295,  112299,  112108,  112127,  112283,  112287
    1087,  112298,  112090,  112109,  112299,  112286,  112089,  112108,  112287
    1088,  112300,  112071,  112090,  112298,  112288,  112070,  112089,  112286
    1089,  112301,  112052,  112071,  112300,  112289,  112051,  112070,  112288
    1090,  105284,  105252,  112052,  112301,  105283,  105253,  112051,  112289
    1091,  112297,  105303,  105284,  112301,  112285,  105302,  105283,  112289
    1092,  112296,  112297,  112301,  112300,  112284,  112285,  112289,  112288
    1093,  112294,  112296,  112300,  112298,  112282,  112284,  112288,  112286
    1094,  112295,  112294,  112298,  112299,  112283,  112282,  112286,  112287
    1095,  112293,  105322,  105303,  112297,  112281,  105321,  105302,  112285
    1096,  112292,  112293,  112297,  112296,  112280,  112281,  112285,  112284
    1097,  112290,  112292,  112296,  112294,  112278,  112280,  112284,  112282
    1098,  112291,  112290,  112294,  112295,  112279,  112278,  112282,  112283
    1099,  112180,  105265,  105322,  112293,  112181,  105264,  105321,  112281
    1100,  112199,  112180,  112293,  112292,  112200,  112181,  112281,  112280
    1101,  112218,  112199,  112292,  112290,  112219,  112200,  112280,  112278
    1102,  112237,  112218,  112290,  112291,  112238,  112219,  112278,  112279
    1103,  112148,  112034,  112236,  112303,  112147,  112033,  112237,  112291
    1104,  112129,  112148,  112303,  112307,  112128,  112147,  112291,  112295
    1105,  112110,  112129,  112307,  112311,  112109,  112128,  112295,  112299
    1106,  112310,  112091,  112110,  112311,  112298,  112090,  112109,  112299
    1107,  112312,  112072,  112091,  112310,  112300,  112071,  112090,  112298
    1108,  112313,  112053,  112072,  112312,  112301,  112052,  112071,  112300
    1109,  105285,  105251,  112053,  112313,  105284,  105252,  112052,  112301
    1110,  112309,  105304,  105285,  112313,  112297,  105303,  105284,  112301
    1111,  112308,  112309,  112313,  112312,  112296,  112297,  112301,  112300
    1112,  112306,  112308,  112312,  112310,  112294,  112296,  112300,  112298
    1113,  112307,  112306,  112310,  112311,  112295,  112294,  112298,  112299
    1114,  112305,  105323,  105304,  112309,  112293,  105322,  105303,  112297
    1115,  112304,  112305,  112309,  112308,  112292,  112293,  112297,  112296
    1116,  112302,  112304,  112308,  112306,  112290,  112292,  112296,  112294
    1117,  112303,  112302,  112306,  112307,  112291,  112290,  112294,  112295
    1118,  112179,  105266,  105323,  112305,  112180,  105265,  105322,  112293
    1119,  112198,  112179,  112305,  112304,  112199,  112180,  112293,  112292
    1120,  112217,  112198,  112304,  112302,  112218,  112199,  112292,  112290
    1121,  112236,  112217,  112302,  112303,  112237,  112218,  112290,  112291
    1122,  112149,  112035,  112235,  112315,  112148,  112034,  112236,  112303
    1123,  112130,  112149,  112315,  112319,  112129,  112148,  112303,  112307
    1124,  112111,  112130,  112319,  112323,  112110,  112129,  112307,  112311
    1125,  112322,  112092,  112111,  112323,  112310,  112091,  112110,  112311
    1126,  112324,  112073,  112092,  112322,  112312,  112072,  112091,  112310
    1127,  112325,  112054,  112073,  112324,  112313,  112053,  112072,  112312
    1128,  105286,  105250,  112054,  112325,  105285,  105251,  112053,  112313
    1129,  112321,  105305,  105286,  112325,  112309,  105304,  105285,  112313
    1130,  112320,  112321,  112325,  112324,  112308,  112309,  112313,  112312
    1131,  112318,  112320,  112324,  112322,  112306,  112308,  112312,  112310
    1132,  112319,  112318,  112322,  112323,  112307,  112306,  112310,  112311
    1133,  112317,  105324,  105305,  112321,  112305,  105323,  105304,  112309
    1134,  112316,  112317,  112321,  112320,  112304,  112305,  112309,  112308
    1135,  112314,  112316,  112320,  112318,  112302,  112304,  112308,  112306
    1136,  112315,  112314,  112318,  112319,  112303,  112302,  112306,  112307
    1137,  112178,  105267,  105324,  112317,  112179,  105266,  105323,  112305
    1138,  112197,  112178,  112317,  112316,  112198,  112179,  112305,  112304
    1139,  112216,  112197,  112316,  112314,  112217,  112198,  112304,  112302
    1140,  112235,  112216,  112314,  112315,  112236,  112217,  112302,  112303
    1141,  112150,  112036,  112234,  112327,  112149,  112035,  112235,  112315
    1142,  112131,  112150,  112327,  112331,  112130,  112149,  112315,  112319
    1143,  112112,  112131,  112331,  112335,  112111,  112130,  112319,  112323
    1144,  112334,  112093,  112112,  112335,  112322,  112092,  112111,  112323
    1145,  112336,  112074,  112093,  112334,  112324,  112073,  112092,  112322
    1146,  112337,  112055,  112074,  112336,  112325,  112054,  112073,  112324
    1147,  105287,  105249,  112055,  112337,  105286,  105250,  112054,  112325
    1148,  112333,  105306,  105287,  112337,  112321,  105305,  105286,  112325
    1149,  112332,  112333,  112337,  112336,  112320,  112321,  112325,  112324
    1150,  112330,  112332,  112336,  112334,  112318,  112320,  112324,  112322
    1151,  112331,  112330,  112334,  112335,  112319,  112318,  112322,  112323
    1152,  112329,  105325,  105306,  112333,  112317,  105324,  105305,  112321
    1153,  112328,  112329,  112333,  112332,  112316,  112317,  112321,  112320
    1154,  112326,  112328,  112332,  112330,  112314,  112316,  112320,  112318
    1155,  112327,  112326,  112330,  112331,  112315,  112314,  112318,  112319
    1156,  112177,  105268,  105325,  112329,  112178,  105267,  105324,  112317
    1157,  112196,  112177,  112329,  112328,  112197,  112178,  112317,  112316
    1158,  112215,  112196,  112328,  112326,  112216,  112197,  112316,  112314
    1159,  112234,  112215,  112326,  112327,  112235,  112216,  112314,  112315
    1160,  112151,  112037,  112233,  112339,  112150,  112036,  112234,  112327
    1161,  112132,  112151,  112339,  112343,  112131,  112150,  112327,  112331
    1162,  112113,  112132,  112343,  112347,  112112,  112131,  112331,  112335
    1163,  112346,  112094,  112113,  112347,  112334,  112093,  112112,  112335
    1164,  112348,  112075,  112094,  112346,  112336,  112074,  112093,  112334
    1165,  112349,  112056,  112075,  112348,  112337,  112055,  112074,  112336
    1166,  105288,  105248,  112056,  112349,  105287,  105249,  112055,  112337
    1167,  112345,  105307,  105288,  112349,  112333,  105306,  105287,  112337
    1168,  112344,  112345,  112349,  112348,  112332,  112333,  112337,  112336
    1169,  112342,  112344,  112348,  112346,  112330,  112332,  112336,  112334
    1170,  112343,  112342,  112346,  112347,  112331,  112330,  112334,  112335
    1171,  112341,  105326,  105307,  112345,  112329,  105325,  105306,  112333
    1172,  112340,  112341,  112345,  112344,  112328,  112329,  112333,  112332
    1173,  112338,  112340,  112344,  112342,  112326,  112328,  112332,  112330
    1174,  112339,  112338,  112342,  112343,  112327,  112326,  112330,  112331
    1175,  112176,  105269,  105326,  112341,  112177,  105268,  105325,  112329
    1176,  112195,  112176,  112341,  112340,  112196,  112177,  112329,  112328
    1177,  112214,  112195,  112340,  112338,  112215,  112196,  112328,  112326
    1178,  112233,  112214,  112338,  112339,  112234,  112215,  112326,  112327
    1179,  112152,  112038,  112232,  112351,  112151,  112037,  112233,  112339
    1180,  112133,  112152,  112351,  112355,  112132,  112151,  112339,  112343
    1181,  112114,  112133,  112355,  112359,  112113,  112132,  112343,  112347
    1182,  112358,  112095,  112114,  112359,  112346,  112094,  112113,  112347
    1183,  112360,  112076,  112095,  112358,  112348,  112075,  112094,  112346
    1184,  112361,  112057,  112076,  112360,  112349,  112056,  112075,  112348
    1185,  105289,  105247,  112057,  112361,  105288,  105248,  112056,  112349
    1186,  112357,  105308,  105289,  112361,  112345,  105307,  105288,  112349
    1187,  112356,  112357,  112361,  112360,  112344,  112345,  112349,  112348
    1188,  112354,  112356,  112360,  112358,  112342,  112344,  112348,  112346
    1189,  112355,  112354,  112358,  112359,  112343,  112342,  112346,  112347
    1190,  112353,  105327,  105308,  112357,  112341,  105326,  105307,  112345
    1191,  112352,  112353,  112357,  112356,  112340,  112341,  112345,  112344
    1192,  112350,  112352,  112356,  112354,  112338,  112340,  112344,  112342
    1193,  112351,  112350,  112354,  112355,  112339,  112338,  112342,  112343
    1194,  112175,  105270,  105327,  112353,  112176,  105269,  105326,  112341
    1195,  112194,  112175,  112353,  112352,  112195,  112176,  112341,  112340
    1196,  112213,  112194,  112352,  112350,  112214,  112195,  112340,  112338
    1197,  112232,  112213,  112350,  112351,  112233,  112214,  112338,  112339
    1198,  112153,  112039,  112231,  112363,  112152,  112038,  112232,  112351
    1199,  112134,  112153,  112363,  112367,  112133,  112152,  112351,  112355
    1200,  112115,  112134,  112367,  112371,  112114,  112133,  112355,  112359
    1201,  112370,  112096,  112115,  112371,  112358,  112095,  112114,  112359
    1202,  112372,  112077,  112096,  112370,  112360,  112076,  112095,  112358
    1203,  112373,  112058,  112077,  112372,  112361,  112057,  112076,  112360
    1204,  105290,  105246,  112058,  112373,  105289,  105247,  112057,  112361
    1205,  112369,  105309,  105290,  112373,  112357,  105308,  105289,  112361
    1206,  112368,  112369,  112373,  112372,  112356,  112357,  112361,  112360
    1207,  112366,  112368,  112372,  112370,  112354,  112356,  112360,  112358
    1208,  112367,  112366,  112370,  112371,  112355,  112354,  112358,  112359
    1209,  112365,  105328,  105309,  112369,  112353,  105327,  105308,  112357
    1210,  112364,  112365,  112369,  112368,  112352,  112353,  112357,  112356
    1211,  112362,  112364,  112368,  112366,  112350,  112352,  112356,  112354
    1212,  112363,  112362,  112366,  112367,  112351,  112350,  112354,  112355
    1213,  112174,  105271,  105328,  112365,  112175,  105270,  105327,  112353
    1214,  112193,  112174,  112365,  112364,  112194,  112175,  112353,  112352
    1215,  112212,  112193,  112364,  112362,  112213,  112194,  112352,  112350
    1216,  112231,  112212,  112362,  112363,  112232,  112213,  112350,  112351
    1217,  112154,  112040,  112230,  112375,  112153,  112039,  112231,  112363
    1218,  112135,  112154,  112375,  112379,  112134,  112153,  112363,  112367
    1219,  112116,  112135,  112379,  112383,  112115,  112134,  112367,  112371
    1220,  112382,  112097,  112116,  112383,  112370,  112096,  112115,  112371
    1221,  112384,  112078,  112097,  112382,  112372,  112077,  112096,  112370
    1222,  112385,  112059,  112078,  112384,  112373,  112058,  112077,  112372
    1223,  105291,  105245,  112059,  112385,  105290,  105246,  112058,  112373
    1224,  112381,  105310,  105291,  112385,  112369,  105309,  105290,  112373
    1225,  112380,  112381,  112385,  112384,  112368,  112369,  112373,  112372
    1226,  112378,  112380,  112384,  112382,  112366,  112368,  112372,  112370
    1227,  112379,  112378,  112382,  112383,  112367,  112366,  112370,  112371
    1228,  112377,  105329,  105310,  112381,  112365,  105328,  105309,  112369
    1229,  112376,  112377,  112381,  112380,  112364,  112365,  112369,  112368
    1230,  112374,  112376,  112380,  112378,  112362,  112364,  112368,  112366
    1231,  112375,  112374,  112378,  112379,  112363,  112362,  112366,  112367
    1232,  112173,  105272,  105329,  112377,  112174,  105271,  105328,  112365
    1233,  112192,  112173,  112377,  112376,  112193,  112174,  112365,  112364
    1234,  112211,  112192,  112376,  112374,  112212,  112193,  112364,  112362
    1235,  112230,  112211,  112374,  112375,  112231,  112212,  112362,  112363
    1236,  112155,  112041,  112229,  112387,  112154,  112040,  112230,  112375
    1237,  112136,  112155,  112387,  112391,  112135,  112154,  112375,  112379
    1238,  112117,  112136,  112391,  112395,  112116,  112135,  112379,  112383
    1239,  112394,  112098,  112117,  112395,  112382,  112097,  112116,  112383
    1240,  112396,  112079,  112098,  112394,  112384,  112078,  112097,  112382
    1241,  112397,  112060,  112079,  112396,  112385,  112059,  112078,  112384
    1242,  105292,  105244,  112060,  112397,  105291,  105245,  112059,  112385
    1243,  112393,  105311,  105292,  112397,  112381,  105310,  105291,  112385
    1244,  112392,  112393,  112397,  112396,  112380,  112381,  112385,  112384
    1245,  112390,  112392,  112396,  112394,  112378,  112380,  112384,  112382
    1246,  112391,  112390,  112394,  112395,  112379,  112378,  112382,  112383
    1247,  112389,  105330,  105311,  112393,  112377,  105329,  105310,  112381
    1248,  112388,  112389,  112393,  112392,  112376,  112377,  112381,  112380
    1249,  112386,  112388,  112392,  112390,  112374,  112376,  112380,  112378
    1250,  112387,  112386,  112390,  112391,  112375,  112374,  112378,  112379
    1251,  112172,  105273,  105330,  112389,  112173,  105272,  105329,  112377
    1252,  112191,  112172,  112389,  112388,  112192,  112173,  112377,  112376
    1253,  112210,  112191,  112388,  112386,  112211,  112192,  112376,  112374
    1254,  112229,  112210,  112386,  112387,  112230,  112211,  112374,  112375
    1255,  112156,  112042,  112228,  112399,  112155,  112041,  112229,  112387
    1256,  112137,  112156,  112399,  112403,  112136,  112155,  112387,  112391
    1257,  112118,  112137,  112403,  112407,  112117,  112136,  112391,  112395
    1258,  112406,  112099,  112118,  112407,  112394,  112098,  112117,  112395
    1259,  112408,  112080,  112099,  112406,  112396,  112079,  112098,  112394
    1260,  112409,  112061,  112080,  112408,  112397,  112060,  112079,  112396
    1261,  105293,  105243,  112061,  112409,  105292,  105244,  112060,  112397
    1262,  112405,  105312,  105293,  112409,  112393,  105311,  105292,  112397
    1263,  112404,  112405,  112409,  112408,  112392,  112393,  112397,  112396
    1264,  112402,  112404,  112408,  112406,  112390,  112392,  112396,  112394
    1265,  112403,  112402,  112406,  112407,  112391,  112390,  112394,  112395
    1266,  112401,  105331,  105312,  112405,  112389,  105330,  105311,  112393
    1267,  112400,  112401,  112405,  112404,  112388,  112389,  112393,  112392
    1268,  112398,  112400,  112404,  112402,  112386,  112388,  112392,  112390
    1269,  112399,  112398,  112402,  112403,  112387,  112386,  112390,  112391
    1270,  112171,  105274,  105331,  112401,  112172,  105273,  105330,  112389
    1271,  112190,  112171,  112401,  112400,  112191,  112172,  112389,  112388
    1272,  112209,  112190,  112400,  112398,  112210,  112191,  112388,  112386
    1273,  112228,  112209,  112398,  112399,  112229,  112210,  112386,  112387
    1274,  112157,  112043,  112227,  112411,  112156,  112042,  112228,  112399
    1275,  112138,  112157,  112411,  112415,  112137,  112156,  112399,  112403
    1276,  112119,  112138,  112415,  112419,  112118,  112137,  112403,  112407
    1277,  112418,  112100,  112119,  112419,  112406,  112099,  112118,  112407
    1278,  112420,  112081,  112100,  112418,  112408,  112080,  112099,  112406
    1279,  112421,  112062,  112081,  112420,  112409,  112061,  112080,  112408
    1280,  105294,  105242,  112062,  112421,  105293,  105243,  112061,  112409
    1281,  112417,  105313,  105294,  112421,  112405,  105312,  105293,  112409
    1282,  112416,  112417,  112421,  112420,  112404,  112405,  112409,  112408
    1283,  112414,  112416,  112420,  112418,  112402,  112404,  112408,  112406
    1284,  112415,  112414,  112418,  112419,  112403,  112402,  112406,  112407
    1285,  112413,  105332,  105313,  112417,  112401,  105331,  105312,  112405
    1286,  112412,  112413,  112417,  112416,  112400,  112401,  112405,  112404
    1287,  112410,  112412,  112416,  112414,  112398,  112400,  112404,  112402
    1288,  112411,  112410,  112414,  112415,  112399,  112398,  112402,  112403
    1289,  112170,  105275,  105332,  112413,  112171,  105274,  105331,  112401
    1290,  112189,  112170,  112413,  112412,  112190,  112171,  112401,  112400
    1291,  112208,  112189,  112412,  112410,  112209,  112190,  112400,  112398
    1292,  112227,  112208,  112410,  112411,  112228,  112209,  112398,  112399
    1293,  112158,  112044,  112226,  112423,  112157,  112043,  112227,  112411
    1294,  112139,  112158,  112423,  112427,  112138,  112157,  112411,  112415
    1295,  112120,  112139,  112427,  112431,  112119,  112138,  112415,  112419
    1296,  112430,  112101,  112120,  112431,  112418,  112100,  112119,  112419
    1297,  112432,  112082,  112101,  112430,  112420,  112081,  112100,  112418
    1298,  112433,  112063,  112082,  112432,  112421,  112062,  112081,  112420
    1299,  105295,  105241,  112063,  112433,  105294,  105242,  112062,  112421
    1300,  112429,  105314,  105295,  112433,  112417,  105313,  105294,  112421
    1301,  112428,  112429,  112433,  112432,  112416,  112417,  112421,  112420
    1302,  112426,  112428,  112432,  112430,  112414,  112416,  112420,  112418
    1303,  112427,  112426,  112430,  112431,  112415,  112414,  112418,  112419
    1304,  112425,  105333,  105314,  112429,  112413,  105332,  105313,  112417
    1305,  112424,  112425,  112429,  112428,  112412,  112413,  112417,  112416
    1306,  112422,  112424,  112428,  112426,  112410,  112412,  112416,  112414
    1307,  112423,  112422,  112426,  112427,  112411,  112410,  112414,  112415
    1308,  112169,  105276,  105333,  112425,  112170,  105275,  105332,  112413
    1309,  112188,  112169,  112425,  112424,  112189,  112170,  112413,  112412
    1310,  112207,  112188,  112424,  112422,  112208,  112189,  112412,  112410
    1311,  112226,  112207,  112422,  112423,  112227,  112208,  112410,  112411
    1312,  112159,  112045,  112225,  112435,  112158,  112044,  112226,  112423
    1313,  112140,  112159,  112435,  112439,  112139,  112158,  112423,  112427
    1314,  112121,  112140,  112439,  112443,  112120,  112139,  112427,  112431
    1315,  112442,  112102,  112121,  112443,  112430,  112101,  112120,  112431
    1316,  112444,  112083,  112102,  112442,  112432,  112082,  112101,  112430
    1317,  112445,  112064,  112083,  112444,  112433,  112063,  112082,  112432
    1318,  105296,  105240,  112064,  112445,  105295,  105241,  112063,  112433
    1319,  112441,  105315,  105296,  112445,  112429,  105314,  105295,  112433
    1320,  112440,  112441,  112445,  112444,  112428,  112429,  112433,  112432
    1321,  112438,  112440,  112444,  112442,  112426,  112428,  112432,  112430
    1322,  112439,  112438,  112442,  112443,  112427,  112426,  112430,  112431
    1323,  112437,  105334,  105315,  112441,  112425,  105333,  105314,  112429
    1324,  112436,  112437,  112441,  112440,  112424,  112425,  112429,  112428
    1325,  112434,  112436,  112440,  112438,  112422,  112424,  112428,  112426
    1326,  112435,  112434,  112438,  112439,  112423,  112422,  112426,  112427
    1327,  112168,  105277,  105334,  112437,  112169,  105276,  105333,  112425
    1328,  112187,  112168,  112437,  112436,  112188,  112169,  112425,  112424
    1329,  112206,  112187,  112436,  112434,  112207,  112188,  112424,  112422
    1330,  112225,  112206,  112434,  112435,  112226,  112207,  112422,  112423
    1331,  112160,  112046,  112224,  112447,  112159,  112045,  112225,  112435
    1332,  112141,  112160,  112447,  112451,  112140,  112159,  112435,  112439
    1333,  112122,  112141,  112451,  112455,  112121,  112140,  112439,  112443
    1334,  112454,  112103,  112122,  112455,  112442,  112102,  112121,  112443
    1335,  112456,  112084,  112103,  112454,  112444,  112083,  112102,  112442
    1336,  112457,  112065,  112084,  112456,  112445,  112064,  112083,  112444
    1337,  105297,  105239,  112065,  112457,  105296,  105240,  112064,  112445
    1338,  112453,  105316,  105297,  112457,  112441,  105315,  105296,  112445
    1339,  112452,  112453,  112457,  112456,  112440,  112441,  112445,  112444
    1340,  112450,  112452,  112456,  112454,  112438,  112440,  112444,  112442
    1341,  112451,  112450,  112454,  112455,  112439,  112438,  112442,  112443
    1342,  112449,  105335,  105316,  112453,  112437,  105334,  105315,  112441
    1343,  112448,  112449,  112453,  112452,  112436,  112437,  112441,  112440
    1344,  112446,  112448,  112452,  112450,  112434,  112436,  112440,  112438
    1345,  112447,  112446,  112450,  112451,  112435,  112434,  112438,  112439
    1346,  112167,  105278,  105335,  112449,  112168,  105277,  105334,  112437
    1347,  112186,  112167,  112449,  112448,  112187,  112168,  112437,  112436
    1348,  112205,  112186,  112448,  112446,  112206,  112187,  112436,  112434
    1349,  112224,  112205,  112446,  112447,  112225,  112206,  112434,  112435
    1350,  112161,  112047,  112223,  112459,  112160,  112046,  112224,  112447
    1351,  112142,  112161,  112459,  112463,  112141,  112160,  112447,  112451
    1352,  112123,  112142,  112463,  112467,  112122,  112141,  112451,  112455
    1353,  112466,  112104,  112123,  112467,  112454,  112103,  112122,  112455
    1354,  112468,  112085,  112104,  112466,  112456,  112084,  112103,  112454
    1355,  112469,  112066,  112085,  112468,  112457,  112065,  112084,  112456
    1356,  105298,  105238,  112066,  112469,  105297,  105239,  112065,  112457
    1357,  112465,  105317,  105298,  112469,  112453,  105316,  105297,  112457
    1358,  112464,  112465,  112469,  112468,  112452,  112453,  112457,  112456
    1359,  112462,  112464,  112468,  112466,  112450,  112452,  112456,  112454
    1360,  112463,  112462,  112466,  112467,  112451,  112450,  112454,  112455
    1361,  112461,  105336,  105317,  112465,  112449,  105335,  105316,  112453
    1362,  112460,  112461,  112465,  112464,  112448,  112449,  112453,  112452
    1363,  112458,  112460,  112464,  112462,  112446,  112448,  112452,  112450
    1364,  112459,  112458,  112462,  112463,  112447,  112446,  112450,  112451
    1365,  112166,  105279,  105336,  112461,  112167,  105278,  105335,  112449
    1366,  112185,  112166,  112461,  112460,  112186,  112167,  112449,  112448
    1367,  112204,  112185,  112460,  112458,  112205,  112186,  112448,  112446
    1368,  112223,  112204,  112458,  112459,  112224,  112205,  112446,  112447
    1369,  112023,  112022,  112162,  112471,  112161,  112047,  112223,  112459
    1370,  112024,  112023,  112471,  112475,  112142,  112161,  112459,  112463
    1371,  112025,  112024,  112475,  112479,  112123,  112142,  112463,  112467
    1372,  112478,  112026,  112025,  112479,  112466,  112104,  112123,  112467
    1373,  112480,  112027,  112026,  112478,  112468,  112085,  112104,  112466
    1374,  112481,  112028,  112027,  112480,  112469,  112066,  112085,  112468
    1375,  105260,  105237,  112028,  112481,  105298,  105238,  112066,  112469
    1376,  112477,  105259,  105260,  112481,  112465,  105317,  105298,  112469
    1377,  112476,  112477,  112481,  112480,  112464,  112465,  112469,  112468
    1378,  112474,  112476,  112480,  112478,  112462,  112464,  112468,  112466
    1379,  112475,  112474,  112478,  112479,  112463,  112462,  112466,  112467
    1380,  112473,  105258,  105259,  112477,  112461,  105336,  105317,  112465
    1381,  112472,  112473,  112477,  112476,  112460,  112461,  112465,  112464
    1382,  112470,  112472,  112476,  112474,  112458,  112460,  112464,  112462
    1383,  112471,  112470,  112474,  112475,  112459,  112458,  112462,  112463
    1384,  112165,  105257,  105258,  112473,  112166,  105279,  105336,  112461
    1385,  112164,  112165,  112473,  112472,  112185,  112166,  112461,  112460
    1386,  112163,  112164,  112472,  112470,  112204,  112185,  112460,  112458
    1387,  112162,  112163,  112470,  112471,  112223,  112204,  112458,  112459
    1388,  111829,  111814,  111841,  111830,  111609,  111608,  111642,  111643
    1389,  111814,  111799,  111840,  111841,  111608,  111607,  111644,  111642
    1390,  111799,  111784,  111839,  111840,  111607,  111606,  111645,  111644
    1391,  111784,  104809,  104854,  111839,  111606,  104708,  104711,  111645
    1392,  111830,  111841,  111838,  111831,  111643,  111642,  111646,  111647
    1393,  111841,  111840,  111837,  111838,  111642,  111644,  111648,  111646
    1394,  111840,  111839,  111836,  111837,  111644,  111645,  111649,  111648
    1395,  111839,  104854,  104839,  111836,  111645,  104711,  104710,  111649
    1396,  111831,  111838,  111833,  111832,  111647,  111646,  111650,  111651
    1397,  111838,  111837,  111834,  111833,  111646,  111648,  111652,  111650
    1398,  111837,  111836,  111835,  111834,  111648,  111649,  111653,  111652
    1399,  111836,  104839,  104824,  111835,  111649,  104710,  104709,  111653
    1400,  104824,  104804,  111676,  111835,  104709,  104705,  111591,  111653
    1401,  111835,  111676,  111691,  111834,  111653,  111591,  111590,  111652
    1402,  111834,  111691,  111706,  111833,  111652,  111590,  111589,  111650
    1403,  111833,  111706,  111721,  111832,  111650,  111589,  111588,  111651
    1404,  111721,  111736,  111831,  111832,  111588,  111587,  111647,  111651
    1405,  111736,  111751,  111830,  111831,  111587,  111586,  111643,  111647
    1406,  111751,  111661,  111829,  111830,  111586,  111585,  111609,  111643
    1407,  111828,  111813,  111853,  111842,  111829,  111814,  111841,  111830
    1408,  111813,  111798,  111852,  111853,  111814,  111799,  111840,  111841
    1409,  111798,  111783,  111851,  111852,  111799,  111784,  111839,  111840
    1410,  111783,  104810,  104855,  111851,  111784,  104809,  104854,  111839
    1411,  111842,  111853,  111850,  111843,  111830,  111841,  111838,  111831
    1412,  111853,  111852,  111849,  111850,  111841,  111840,  111837,  111838
    1413,  111852,  111851,  111848,  111849,  111840,  111839,  111836,  111837
    1414,  111851,  104855,  104840,  111848,  111839,  104854,  104839,  111836
    1415,  111843,  111850,  111845,  111844,  111831,  111838,  111833,  111832
    1416,  111850,  111849,  111846,  111845,  111838,  111837,  111834,  111833
    1417,  111849,  111848,  111847,  111846,  111837,  111836,  111835,  111834
    1418,  111848,  104840,  104825,  111847,  111836,  104839,  104824,  111835
    1419,  104825,  104803,  111677,  111847,  104824,  104804,  111676,  111835
    1420,  111847,  111677,  111692,  111846,  111835,  111676,  111691,  111834
    1421,  111846,  111692,  111707,  111845,  111834,  111691,  111706,  111833
    1422,  111845,  111707,  111722,  111844,  111833,  111706,  111721,  111832
    1423,  111722,  111737,  111843,  111844,  111721,  111736,  111831,  111832
    1424,  111737,  111752,  111842,  111843,  111736,  111751,  111830,  111831
    1425,  111752,  111662,  111828,  111842,  111751,  111661,  111829,  111830
    1426,  111827,  111812,  111865,  111854,  111828,  111813,  111853,  111842
    1427,  111812,  111797,  111864,  111865,  111813,  111798,  111852,  111853
    1428,  111797,  111782,  111863,  111864,  111798,  111783,  111851,  111852
    1429,  111782,  104811,  104856,  111863,  111783,  104810,  104855,  111851
    1430,  111854,  111865,  111862,  111855,  111842,  111853,  111850,  111843
    1431,  111865,  111864,  111861,  111862,  111853,  111852,  111849,  111850
    1432,  111864,  111863,  111860,  111861,  111852,  111851,  111848,  111849
    1433,  111863,  104856,  104841,  111860,  111851,  104855,  104840,  111848
    1434,  111855,  111862,  111857,  111856,  111843,  111850,  111845,  111844
    1435,  111862,  111861,  111858,  111857,  111850,  111849,  111846,  111845
    1436,  111861,  111860,  111859,  111858,  111849,  111848,  111847,  111846
    1437,  111860,  104841,  104826,  111859,  111848,  104840,  104825,  111847
    1438,  104826,  104802,  111678,  111859,  104825,  104803,  111677,  111847
    1439,  111859,  111678,  111693,  111858,  111847,  111677,  111692,  111846
    1440,  111858,  111693,  111708,  111857,  111846,  111692,  111707,  111845
    1441,  111857,  111708,  111723,  111856,  111845,  111707,  111722,  111844
    1442,  111723,  111738,  111855,  111856,  111722,  111737,  111843,  111844
    1443,  111738,  111753,  111854,  111855,  111737,  111752,  111842,  111843
    1444,  111753,  111663,  111827,  111854,  111752,  111662,  111828,  111842
    1445,  111826,  111811,  111877,  111866,  111827,  111812,  111865,  111854
    1446,  111811,  111796,  111876,  111877,  111812,  111797,  111864,  111865
    1447,  111796,  111781,  111875,  111876,  111797,  111782,  111863,  111864
    1448,  111781,  104812,  104857,  111875,  111782,  104811,  104856,  111863
    1449,  111866,  111877,  111874,  111867,  111854,  111865,  111862,  111855
    1450,  111877,  111876,  111873,  111874,  111865,  111864,  111861,  111862
    1451,  111876,  111875,  111872,  111873,  111864,  111863,  111860,  111861
    1452,  111875,  104857,  104842,  111872,  111863,  104856,  104841,  111860
    1453,  111867,  111874,  111869,  111868,  111855,  111862,  111857,  111856
    1454,  111874,  111873,  111870,  111869,  111862,  111861,  111858,  111857
    1455,  111873,  111872,  111871,  111870,  111861,  111860,  111859,  111858
    1456,  111872,  104842,  104827,  111871,  111860,  104841,  104826,  111859
    1457,  104827,  104801,  111679,  111871,  104826,  104802,  111678,  111859
    1458,  111871,  111679,  111694,  111870,  111859,  111678,  111693,  111858
    1459,  111870,  111694,  111709,  111869,  111858,  111693,  111708,  111857
    1460,  111869,  111709,  111724,  111868,  111857,  111708,  111723,  111856
    1461,  111724,  111739,  111867,  111868,  111723,  111738,  111855,  111856
    1462,  111739,  111754,  111866,  111867,  111738,  111753,  111854,  111855
    1463,  111754,  111664,  111826,  111866,  111753,  111663,  111827,  111854
    1464,  111825,  111810,  111889,  111878,  111826,  111811,  111877,  111866
    1465,  111810,  111795,  111888,  111889,  111811,  111796,  111876,  111877
    1466,  111795,  111780,  111887,  111888,  111796,  111781,  111875,  111876
    1467,  111780,  104813,  104858,  111887,  111781,  104812,  104857,  111875
    1468,  111878,  111889,  111886,  111879,  111866,  111877,  111874,  111867
    1469,  111889,  111888,  111885,  111886,  111877,  111876,  111873,  111874
    1470,  111888,  111887,  111884,  111885,  111876,  111875,  111872,  111873
    1471,  111887,  104858,  104843,  111884,  111875,  104857,  104842,  111872
    1472,  111879,  111886,  111881,  111880,  111867,  111874,  111869,  111868
    1473,  111886,  111885,  111882,  111881,  111874,  111873,  111870,  111869
    1474,  111885,  111884,  111883,  111882,  111873,  111872,  111871,  111870
    1475,  111884,  104843,  104828,  111883,  111872,  104842,  104827,  111871
    1476,  104828,  104800,  111680,  111883,  104827,  104801,  111679,  111871
    1477,  111883,  111680,  111695,  111882,  111871,  111679,  111694,  111870
    1478,  111882,  111695,  111710,  111881,  111870,  111694,  111709,  111869
    1479,  111881,  111710,  111725,  111880,  111869,  111709,  111724,  111868
    1480,  111725,  111740,  111879,  111880,  111724,  111739,  111867,  111868
    1481,  111740,  111755,  111878,  111879,  111739,  111754,  111866,  111867
    1482,  111755,  111665,  111825,  111878,  111754,  111664,  111826,  111866
    1483,  111824,  111809,  111901,  111890,  111825,  111810,  111889,  111878
    1484,  111809,  111794,  111900,  111901,  111810,  111795,  111888,  111889
    1485,  111794,  111779,  111899,  111900,  111795,  111780,  111887,  111888
    1486,  111779,  104814,  104859,  111899,  111780,  104813,  104858,  111887
    1487,  111890,  111901,  111898,  111891,  111878,  111889,  111886,  111879
    1488,  111901,  111900,  111897,  111898,  111889,  111888,  111885,  111886
    1489,  111900,  111899,  111896,  111897,  111888,  111887,  111884,  111885
    1490,  111899,  104859,  104844,  111896,  111887,  104858,  104843,  111884
    1491,  111891,  111898,  111893,  111892,  111879,  111886,  111881,  111880
    1492,  111898,  111897,  111894,  111893,  111886,  111885,  111882,  111881
    1493,  111897,  111896,  111895,  111894,  111885,  111884,  111883,  111882
    1494,  111896,  104844,  104829,  111895,  111884,  104843,  104828,  111883
    1495,  104829,  104799,  111681,  111895,  104828,  104800,  111680,  111883
    1496,  111895,  111681,  111696,  111894,  111883,  111680,  111695,  111882
    1497,  111894,  111696,  111711,  111893,  111882,  111695,  111710,  111881
    1498,  111893,  111711,  111726,  111892,  111881,  111710,  111725,  111880
    1499,  111726,  111741,  111891,  111892,  111725,  111740,  111879,  111880
    1500,  111741,  111756,  111890,  111891,  111740,  111755,  111878,  111879
    1501,  111756,  111666,  111824,  111890,  111755,  111665,  111825,  111878
    1502,  111823,  111808,  111913,  111902,  111824,  111809,  111901,  111890
    1503,  111808,  111793,  111912,  111913,  111809,  111794,  111900,  111901
    1504,  111793,  111778,  111911,  111912,  111794,  111779,  111899,  111900
    1505,  111778,  104815,  104860,  111911,  111779,  104814,  104859,  111899
    1506,  111902,  111913,  111910,  111903,  111890,  111901,  111898,  111891
    1507,  111913,  111912,  111909,  111910,  111901,  111900,  111897,  111898
    1508,  111912,  111911,  111908,  111909,  111900,  111899,  111896,  111897
    1509,  111911,  104860,  104845,  111908,  111899,  104859,  104844,  111896
    1510,  111903,  111910,  111905,  111904,  111891,  111898,  111893,  111892
    1511,  111910,  111909,  111906,  111905,  111898,  111897,  111894,  111893
    1512,  111909,  111908,  111907,  111906,  111897,  111896,  111895,  111894
    1513,  111908,  104845,  104830,  111907,  111896,  104844,  104829,  111895
    1514,  104830,  104798,  111682,  111907,  104829,  104799,  111681,  111895
    1515,  111907,  111682,  111697,  111906,  111895,  111681,  111696,  111894
    1516,  111906,  111697,  111712,  111905,  111894,  111696,  111711,  111893
    1517,  111905,  111712,  111727,  111904,  111893,  111711,  111726,  111892
    1518,  111727,  111742,  111903,  111904,  111726,  111741,  111891,  111892
    1519,  111742,  111757,  111902,  111903,  111741,  111756,  111890,  111891
    1520,  111757,  111667,  111823,  111902,  111756,  111666,  111824,  111890
    1521,  111822,  111807,  111925,  111914,  111823,  111808,  111913,  111902
    1522,  111807,  111792,  111924,  111925,  111808,  111793,  111912,  111913
    1523,  111792,  111777,  111923,  111924,  111793,  111778,  111911,  111912
    1524,  111777,  104816,  104861,  111923,  111778,  104815,  104860,  111911
    1525,  111914,  111925,  111922,  111915,  111902,  111913,  111910,  111903
    1526,  111925,  111924,  111921,  111922,  111913,  111912,  111909,  111910
    1527,  111924,  111923,  111920,  111921,  111912,  111911,  111908,  111909
    1528,  111923,  104861,  104846,  111920,  111911,  104860,  104845,  111908
    1529,  111915,  111922,  111917,  111916,  111903,  111910,  111905,  111904
    1530,  111922,  111921,  111918,  111917,  111910,  111909,  111906,  111905
    1531,  111921,  111920,  111919,  111918,  111909,  111908,  111907,  111906
    1532,  111920,  104846,  104831,  111919,  111908,  104845,  104830,  111907
    1533,  104831,  104797,  111683,  111919,  104830,  104798,  111682,  111907
    1534,  111919,  111683,  111698,  111918,  111907,  111682,  111697,  111906
    1535,  111918,  111698,  111713,  111917,  111906,  111697,  111712,  111905
    1536,  111917,  111713,  111728,  111916,  111905,  111712,  111727,  111904
    1537,  111728,  111743,  111915,  111916,  111727,  111742,  111903,  111904
    1538,  111743,  111758,  111914,  111915,  111742,  111757,  111902,  111903
    1539,  111758,  111668,  111822,  111914,  111757,  111667,  111823,  111902
    1540,  111821,  111806,  111937,  111926,  111822,  111807,  111925,  111914
    1541,  111806,  111791,  111936,  111937,  111807,  111792,  111924,  111925
    1542,  111791,  111776,  111935,  111936,  111792,  111777,  111923,  111924
    1543,  111776,  104817,  104862,  111935,  111777,  104816,  104861,  111923
    1544,  111926,  111937,  111934,  111927,  111914,  111925,  111922,  111915
    1545,  111937,  111936,  111933,  111934,  111925,  111924,  111921,  111922
    1546,  111936,  111935,  111932,  111933,  111924,  111923,  111920,  111921
    1547,  111935,  104862,  104847,  111932,  111923,  104861,  104846,  111920
    1548,  111927,  111934,  111929,  111928,  111915,  111922,  111917,  111916
    1549,  111934,  111933,  111930,  111929,  111922,  111921,  111918,  111917
    1550,  111933,  111932,  111931,  111930,  111921,  111920,  111919,  111918
    1551,  111932,  104847,  104832,  111931,  111920,  104846,  104831,  111919
    1552,  104832,  104796,  111684,  111931,  104831,  104797,  111683,  111919
    1553,  111931,  111684,  111699,  111930,  111919,  111683,  111698,  111918
    1554,  111930,  111699,  111714,  111929,  111918,  111698,  111713,  111917
    1555,  111929,  111714,  111729,  111928,  111917,  111713,  111728,  111916
    1556,  111729,  111744,  111927,  111928,  111728,  111743,  111915,  111916
    1557,  111744,  111759,  111926,  111927,  111743,  111758,  111914,  111915
    1558,  111759,  111669,  111821,  111926,  111758,  111668,  111822,  111914
    1559,  111820,  111805,  111949,  111938,  111821,  111806,  111937,  111926
    1560,  111805,  111790,  111948,  111949,  111806,  111791,  111936,  111937
    1561,  111790,  111775,  111947,  111948,  111791,  111776,  111935,  111936
    1562,  111775,  104818,  104863,  111947,  111776,  104817,  104862,  111935
    1563,  111938,  111949,  111946,  111939,  111926,  111937,  111934,  111927
    1564,  111949,  111948,  111945,  111946,  111937,  111936,  111933,  111934
    1565,  111948,  111947,  111944,  111945,  111936,  111935,  111932,  111933
    1566,  111947,  104863,  104848,  111944,  111935,  104862,  104847,  111932
    1567,  111939,  111946,  111941,  111940,  111927,  111934,  111929,  111928
    1568,  111946,  111945,  111942,  111941,  111934,  111933,  111930,  111929
    1569,  111945,  111944,  111943,  111942,  111933,  111932,  111931,  111930
    1570,  111944,  104848,  104833,  111943,  111932,  104847,  104832,  111931
    1571,  104833,  104795,  111685,  111943,  104832,  104796,  111684,  111931
    1572,  111943,  111685,  111700,  111942,  111931,  111684,  111699,  111930
    1573,  111942,  111700,  111715,  111941,  111930,  111699,  111714,  111929
    1574,  111941,  111715,  111730,  111940,  111929,  111714,  111729,  111928
    1575,  111730,  111745,  111939,  111940,  111729,  111744,  111927,  111928
    1576,  111745,  111760,  111938,  111939,  111744,  111759,  111926,  111927
    1577,  111760,  111670,  111820,  111938,  111759,  111669,  111821,  111926
    1578,  111819,  111804,  111961,  111950,  111820,  111805,  111949,  111938
    1579,  111804,  111789,  111960,  111961,  111805,  111790,  111948,  111949
    1580,  111789,  111774,  111959,  111960,  111790,  111775,  111947,  111948
    1581,  111774,  104819,  104864,  111959,  111775,  104818,  104863,  111947
    1582,  111950,  111961,  111958,  111951,  111938,  111949,  111946,  111939
    1583,  111961,  111960,  111957,  111958,  111949,  111948,  111945,  111946
    1584,  111960,  111959,  111956,  111957,  111948,  111947,  111944,  111945
    1585,  111959,  104864,  104849,  111956,  111947,  104863,  104848,  111944
    1586,  111951,  111958,  111953,  111952,  111939,  111946,  111941,  111940
    1587,  111958,  111957,  111954,  111953,  111946,  111945,  111942,  111941
    1588,  111957,  111956,  111955,  111954,  111945,  111944,  111943,  111942
    1589,  111956,  104849,  104834,  111955,  111944,  104848,  104833,  111943
    1590,  104834,  104794,  111686,  111955,  104833,  104795,  111685,  111943
    1591,  111955,  111686,  111701,  111954,  111943,  111685,  111700,  111942
    1592,  111954,  111701,  111716,  111953,  111942,  111700,  111715,  111941
    1593,  111953,  111716,  111731,  111952,  111941,  111715,  111730,  111940
    1594,  111731,  111746,  111951,  111952,  111730,  111745,  111939,  111940
    1595,  111746,  111761,  111950,  111951,  111745,  111760,  111938,  111939
    1596,  111761,  111671,  111819,  111950,  111760,  111670,  111820,  111938
    1597,  111818,  111803,  111973,  111962,  111819,  111804,  111961,  111950
    1598,  111803,  111788,  111972,  111973,  111804,  111789,  111960,  111961
    1599,  111788,  111773,  111971,  111972,  111789,  111774,  111959,  111960
    1600,  111773,  104820,  104865,  111971,  111774,  104819,  104864,  111959
    1601,  111962,  111973,  111970,  111963,  111950,  111961,  111958,  111951
    1602,  111973,  111972,  111969,  111970,  111961,  111960,  111957,  111958
    1603,  111972,  111971,  111968,  111969,  111960,  111959,  111956,  111957
    1604,  111971,  104865,  104850,  111968,  111959,  104864,  104849,  111956
    1605,  111963,  111970,  111965,  111964,  111951,  111958,  111953,  111952
    1606,  111970,  111969,  111966,  111965,  111958,  111957,  111954,  111953
    1607,  111969,  111968,  111967,  111966,  111957,  111956,  111955,  111954
    1608,  111968,  104850,  104835,  111967,  111956,  104849,  104834,  111955
    1609,  104835,  104793,  111687,  111967,  104834,  104794,  111686,  111955
    1610,  111967,  111687,  111702,  111966,  111955,  111686,  111701,  111954
    1611,  111966,  111702,  111717,  111965,  111954,  111701,  111716,  111953
    1612,  111965,  111717,  111732,  111964,  111953,  111716,  111731,  111952
    1613,  111732,  111747,  111963,  111964,  111731,  111746,  111951,  111952
    1614,  111747,  111762,  111962,  111963,  111746,  111761,  111950,  111951
    1615,  111762,  111672,  111818,  111962,  111761,  111671,  111819,  111950
    1616,  111817,  111802,  111985,  111974,  111818,  111803,  111973,  111962
    1617,  111802,  111787,  111984,  111985,  111803,  111788,  111972,  111973
    1618,  111787,  111772,  111983,  111984,  111788,  111773,  111971,  111972
    1619,  111772,  104821,  104866,  111983,  111773,  104820,  104865,  111971
    1620,  111974,  111985,  111982,  111975,  111962,  111973,  111970,  111963
    1621,  111985,  111984,  111981,  111982,  111973,  111972,  111969,  111970
    1622,  111984,  111983,  111980,  111981,  111972,  111971,  111968,  111969
    1623,  111983,  104866,  104851,  111980,  111971,  104865,  104850,  111968
    1624,  111975,  111982,  111977,  111976,  111963,  111970,  111965,  111964
    1625,  111982,  111981,  111978,  111977,  111970,  111969,  111966,  111965
    1626,  111981,  111980,  111979,  111978,  111969,  111968,  111967,  111966
    1627,  111980,  104851,  104836,  111979,  111968,  104850,  104835,  111967
    1628,  104836,  104792,  111688,  111979,  104835,  104793,  111687,  111967
    1629,  111979,  111688,  111703,  111978,  111967,  111687,  111702,  111966
    1630,  111978,  111703,  111718,  111977,  111966,  111702,  111717,  111965
    1631,  111977,  111718,  111733,  111976,  111965,  111717,  111732,  111964
    1632,  111733,  111748,  111975,  111976,  111732,  111747,  111963,  111964
    1633,  111748,  111763,  111974,  111975,  111747,  111762,  111962,  111963
    1634,  111763,  111673,  111817,  111974,  111762,  111672,  111818,  111962
    1635,  111816,  111801,  111997,  111986,  111817,  111802,  111985,  111974
    1636,  111801,  111786,  111996,  111997,  111802,  111787,  111984,  111985
    1637,  111786,  111771,  111995,  111996,  111787,  111772,  111983,  111984
    1638,  111771,  104822,  104867,  111995,  111772,  104821,  104866,  111983
    1639,  111986,  111997,  111994,  111987,  111974,  111985,  111982,  111975
    1640,  111997,  111996,  111993,  111994,  111985,  111984,  111981,  111982
    1641,  111996,  111995,  111992,  111993,  111984,  111983,  111980,  111981
    1642,  111995,  104867,  104852,  111992,  111983,  104866,  104851,  111980
    1643,  111987,  111994,  111989,  111988,  111975,  111982,  111977,  111976
    1644,  111994,  111993,  111990,  111989,  111982,  111981,  111978,  111977
    1645,  111993,  111992,  111991,  111990,  111981,  111980,  111979,  111978
    1646,  111992,  104852,  104837,  111991,  111980,  104851,  104836,  111979
    1647,  104837,  104791,  111689,  111991,  104836,  104792,  111688,  111979
    1648,  111991,  111689,  111704,  111990,  111979,  111688,  111703,  111978
    1649,  111990,  111704,  111719,  111989,  111978,  111703,  111718,  111977
    1650,  111989,  111719,  111734,  111988,  111977,  111718,  111733,  111976
    1651,  111734,  111749,  111987,  111988,  111733,  111748,  111975,  111976
    1652,  111749,  111764,  111986,  111987,  111748,  111763,  111974,  111975
    1653,  111764,  111674,  111816,  111986,  111763,  111673,  111817,  111974
    1654,  111815,  111800,  112009,  111998,  111816,  111801,  111997,  111986
    1655,  111800,  111785,  112008,  112009,  111801,  111786,  111996,  111997
    1656,  111785,  111770,  112007,  112008,  111786,  111771,  111995,  111996
    1657,  111770,  104823,  104868,  112007,  111771,  104822,  104867,  111995
    1658,  111998,  112009,  112006,  111999,  111986,  111997,  111994,  111987
    1659,  112009,  112008,  112005,  112006,  111997,  111996,  111993,  111994
    1660,  112008,  112007,  112004,  112005,  111996,  111995,  111992,  111993
    1661,  112007,  104868,  104853,  112004,  111995,  104867,  104852,  111992
    1662,  111999,  112006,  112001,  112000,  111987,  111994,  111989,  111988
    1663,  112006,  112005,  112002,  112001,  111994,  111993,  111990,  111989
    1664,  112005,  112004,  112003,  112002,  111993,  111992,  111991,  111990
    1665,  112004,  104853,  104838,  112003,  111992,  104852,  104837,  111991
    1666,  104838,  104790,  111690,  112003,  104837,  104791,  111689,  111991
    1667,  112003,  111690,  111705,  112002,  111991,  111689,  111704,  111990
    1668,  112002,  111705,  111720,  112001,  111990,  111704,  111719,  111989
    1669,  112001,  111720,  111735,  112000,  111989,  111719,  111734,  111988
    1670,  111735,  111750,  111999,  112000,  111734,  111749,  111987,  111988
    1671,  111750,  111765,  111998,  111999,  111749,  111764,  111986,  111987
    1672,  111765,  111675,  111815,  111998,  111764,  111674,  111816,  111986
    1673,  111769,  111768,  112021,  112010,  111815,  111800,  112009,  111998
    1674,  111768,  111767,  112020,  112021,  111800,  111785,  112008,  112009
    1675,  111767,  111766,  112019,  112020,  111785,  111770,  112007,  112008
    1676,  111766,  104805,  104808,  112019,  111770,  104823,  104868,  112007
    1677,  112010,  112021,  112018,  112011,  111998,  112009,  112006,  111999
    1678,  112021,  112020,  112017,  112018,  112009,  112008,  112005,  112006
    1679,  112020,  112019,  112016,  112017,  112008,  112007,  112004,  112005
    1680,  112019,  104808,  104807,  112016,  112007,  104868,  104853,  112004
    1681,  112011,  112018,  112013,  112012,  111999,  112006,  112001,  112000
    1682,  112018,  112017,  112014,  112013,  112006,  112005,  112002,  112001
    1683,  112017,  112016,  112015,  112014,  112005,  112004,  112003,  112002
    1684,  112016,  104807,  104806,  112015,  112004,  104853,  104838,  112003
    1685,  104806,  104789,  111660,  112015,  104838,  104790,  111690,  112003
    1686,  112015,  111660,  111659,  112014,  112003,  111690,  111705,  112002
    1687,  112014,  111659,  111658,  112013,  112002,  111705,  111720,  112001
    1688,  112013,  111658,  111657,  112012,  112001,  111720,  111735,  112000
    1689,  111657,  111656,  112011,  112012,  111735,  111750,  111999,  112000
    1690,  111656,  111655,  112010,  112011,  111750,  111765,  111998,  111999
    1691,  111655,  111654,  111769,  112010,  111765,  111675,  111815,  111998
    1692,  111604,  111592,  111617,  111619,  111241,  111240,  111250,  111255
    1693,  111602,  111604,  111619,  111623,  111242,  111241,  111255,  111256
    1694,  111600,  111602,  111623,  111627,  111243,  111242,  111256,  111251
    1695,  111626,  111598,  111600,  111627,  111254,  111244,  111243,  111251
    1696,  111628,  111596,  111598,  111626,  111253,  111245,  111244,  111254
    1697,  111629,  111594,  111596,  111628,  111252,  111246,  111245,  111253
    1698,  104714,  104707,  111594,  111629,  104287,  104285,  111246,  111252
    1699,  111625,  104716,  104714,  111629,  111262,  104288,  104287,  111252
    1700,  111624,  111625,  111629,  111628,  111261,  111262,  111252,  111253
    1701,  111622,  111624,  111628,  111626,  111260,  111261,  111253,  111254
    1702,  111623,  111622,  111626,  111627,  111256,  111260,  111254,  111251
    1703,  111621,  104718,  104716,  111625,  111259,  104289,  104288,  111262
    1704,  111620,  111621,  111625,  111624,  111258,  111259,  111262,  111261
    1705,  111618,  111620,  111624,  111622,  111257,  111258,  111261,  111260
    1706,  111619,  111618,  111622,  111623,  111255,  111257,  111260,  111256
    1707,  111611,  104712,  104718,  111621,  111247,  104286,  104289,  111259
    1708,  111613,  111611,  111621,  111620,  111248,  111247,  111259,  111258
    1709,  111615,  111613,  111620,  111618,  111249,  111248,  111258,  111257
    1710,  111617,  111615,  111618,  111619,  111250,  111249,  111257,  111255
    1711,  111605,  111593,  111616,  111631,  111604,  111592,  111617,  111619
    1712,  111603,  111605,  111631,  111635,  111602,  111604,  111619,  111623
    1713,  111601,  111603,  111635,  111639,  111600,  111602,  111623,  111627
    1714,  111638,  111599,  111601,  111639,  111626,  111598,  111600,  111627
    1715,  111640,  111597,  111599,  111638,  111628,  111596,  111598,  111626
    1716,  111641,  111595,  111597,  111640,  111629,  111594,  111596,  111628
    1717,  104715,  104706,  111595,  111641,  104714,  104707,  111594,  111629
    1718,  111637,  104717,  104715,  111641,  111625,  104716,  104714,  111629
    1719,  111636,  111637,  111641,  111640,  111624,  111625,  111629,  111628
    1720,  111634,  111636,  111640,  111638,  111622,  111624,  111628,  111626
    1721,  111635,  111634,  111638,  111639,  111623,  111622,  111626,  111627
    1722,  111633,  104719,  104717,  111637,  111621,  104718,  104716,  111625
    1723,  111632,  111633,  111637,  111636,  111620,  111621,  111625,  111624
    1724,  111630,  111632,  111636,  111634,  111618,  111620,  111624,  111622
    1725,  111631,  111630,  111634,  111635,  111619,  111618,  111622,  111623
    1726,  111610,  104713,  104719,  111633,  111611,  104712,  104718,  111621
    1727,  111612,  111610,  111633,  111632,  111613,  111611,  111621,  111620
    1728,  111614,  111612,  111632,  111630,  111615,  111613,  111620,  111618
    1729,  111616,  111614,  111630,  111631,  111617,  111615,  111618,  111619
    1730,  111586,  111585,  111609,  111643,  111605,  111593,  111616,  111631
    1731,  111587,  111586,  111643,  111647,  111603,  111605,  111631,  111635
    1732,  111588,  111587,  111647,  111651,  111601,  111603,  111635,  111639
    1733,  111650,  111589,  111588,  111651,  111638,  111599,  111601,  111639
    1734,  111652,  111590,  111589,  111650,  111640,  111597,  111599,  111638
    1735,  111653,  111591,  111590,  111652,  111641,  111595,  111597,  111640
    1736,  104709,  104705,  111591,  111653,  104715,  104706,  111595,  111641
    1737,  111649,  104710,  104709,  111653,  111637,  104717,  104715,  111641
    1738,  111648,  111649,  111653,  111652,  111636,  111637,  111641,  111640
    1739,  111646,  111648,  111652,  111650,  111634,  111636,  111640,  111638
    1740,  111647,  111646,  111650,  111651,  111635,  111634,  111638,  111639
    1741,  111645,  104711,  104710,  111649,  111633,  104719,  104717,  111637
    1742,  111644,  111645,  111649,  111648,  111632,  111633,  111637,  111636
    1743,  111642,  111644,  111648,  111646,  111630,  111632,  111636,  111634
    1744,  111643,  111642,  111646,  111647,  111631,  111630,  111634,  111635
    1745,  111606,  104708,  104711,  111645,  111610,  104713,  104719,  111633
    1746,  111607,  111606,  111645,  111644,  111612,  111610,  111633,  111632
    1747,  111608,  111607,  111644,  111642,  111614,  111612,  111632,  111630
    1748,  111609,  111608,  111642,  111643,  111616,  111614,  111630,  111631
    1749,  111241,  111240,  111250,  111255,  111360,  111276,  111404,  111417
    1750,  111242,  111241,  111255,  111256,  111347,  111360,  111417,  111421
    1751,  111243,  111242,  111256,  111251,  111334,  111347,  111421,  111425
    1752,  111254,  111244,  111243,  111251,  111426,  111321,  111334,  111425
    1753,  111253,  111245,  111244,  111254,  111427,  111308,  111321,  111426
    1754,  111252,  111246,  111245,  111253,  111428,  111295,  111308,  111427
    1755,  104287,  104285,  111246,  111252,  104356,  104314,  111295,  111428
    1756,  111262,  104288,  104287,  111252,  111424,  104369,  104356,  111428
    1757,  111261,  111262,  111252,  111253,  111423,  111424,  111428,  111427
    1758,  111260,  111261,  111253,  111254,  111422,  111423,  111427,  111426
    1759,  111256,  111260,  111254,  111251,  111421,  111422,  111426,  111425
    1760,  111259,  104289,  104288,  111262,  111420,  104382,  104369,  111424
    1761,  111258,  111259,  111262,  111261,  111419,  111420,  111424,  111423
    1762,  111257,  111258,  111261,  111260,  111418,  111419,  111423,  111422
    1763,  111255,  111257,  111260,  111256,  111417,  111418,  111422,  111421
    1764,  111247,  104286,  104289,  111259,  111365,  104340,  104382,  111420
    1765,  111248,  111247,  111259,  111258,  111378,  111365,  111420,  111419
    1766,  111249,  111248,  111258,  111257,  111391,  111378,  111419,  111418
    1767,  111250,  111249,  111257,  111255,  111404,  111391,  111418,  111417
    1768,  111360,  111276,  111404,  111417,  111359,  111275,  111405,  111429
    1769,  111347,  111360,  111417,  111421,  111346,  111359,  111429,  111433
    1770,  111334,  111347,  111421,  111425,  111333,  111346,  111433,  111437
    1771,  111426,  111321,  111334,  111425,  111438,  111320,  111333,  111437
    1772,  111427,  111308,  111321,  111426,  111439,  111307,  111320,  111438
    1773,  111428,  111295,  111308,  111427,  111440,  111294,  111307,  111439
    1774,  104356,  104314,  111295,  111428,  104355,  104315,  111294,  111440
    1775,  111424,  104369,  104356,  111428,  111436,  104368,  104355,  111440
    1776,  111423,  111424,  111428,  111427,  111435,  111436,  111440,  111439
    1777,  111422,  111423,  111427,  111426,  111434,  111435,  111439,  111438
    1778,  111421,  111422,  111426,  111425,  111433,  111434,  111438,  111437
    1779,  111420,  104382,  104369,  111424,  111432,  104381,  104368,  111436
    1780,  111419,  111420,  111424,  111423,  111431,  111432,  111436,  111435
    1781,  111418,  111419,  111423,  111422,  111430,  111431,  111435,  111434
    1782,  111417,  111418,  111422,  111421,  111429,  111430,  111434,  111433
    1783,  111365,  104340,  104382,  111420,  111366,  104339,  104381,  111432
    1784,  111378,  111365,  111420,  111419,  111379,  111366,  111432,  111431
    1785,  111391,  111378,  111419,  111418,  111392,  111379,  111431,  111430
    1786,  111404,  111391,  111418,  111417,  111405,  111392,  111430,  111429
    1787,  111359,  111275,  111405,  111429,  111358,  111274,  111406,  111441
    1788,  111346,  111359,  111429,  111433,  111345,  111358,  111441,  111445
    1789,  111333,  111346,  111433,  111437,  111332,  111345,  111445,  111449
    1790,  111438,  111320,  111333,  111437,  111450,  111319,  111332,  111449
    1791,  111439,  111307,  111320,  111438,  111451,  111306,  111319,  111450
    1792,  111440,  111294,  111307,  111439,  111452,  111293,  111306,  111451
    1793,  104355,  104315,  111294,  111440,  104354,  104316,  111293,  111452
    1794,  111436,  104368,  104355,  111440,  111448,  104367,  104354,  111452
    1795,  111435,  111436,  111440,  111439,  111447,  111448,  111452,  111451
    1796,  111434,  111435,  111439,  111438,  111446,  111447,  111451,  111450
    1797,  111433,  111434,  111438,  111437,  111445,  111446,  111450,  111449
    1798,  111432,  104381,  104368,  111436,  111444,  104380,  104367,  111448
    1799,  111431,  111432,  111436,  111435,  111443,  111444,  111448,  111447
    1800,  111430,  111431,  111435,  111434,  111442,  111443,  111447,  111446
    1801,  111429,  111430,  111434,  111433,  111441,  111442,  111446,  111445
    1802,  111366,  104339,  104381,  111432,  111367,  104338,  104380,  111444
    1803,  111379,  111366,  111432,  111431,  111380,  111367,  111444,  111443
    1804,  111392,  111379,  111431,  111430,  111393,  111380,  111443,  111442
    1805,  111405,  111392,  111430,  111429,  111406,  111393,  111442,  111441
    1806,  111358,  111274,  111406,  111441,  111357,  111273,  111407,  111453
    1807,  111345,  111358,  111441,  111445,  111344,  111357,  111453,  111457
    1808,  111332,  111345,  111445,  111449,  111331,  111344,  111457,  111461
    1809,  111450,  111319,  111332,  111449,  111462,  111318,  111331,  111461
    1810,  111451,  111306,  111319,  111450,  111463,  111305,  111318,  111462
    1811,  111452,  111293,  111306,  111451,  111464,  111292,  111305,  111463
    1812,  104354,  104316,  111293,  111452,  104353,  104317,  111292,  111464
    1813,  111448,  104367,  104354,  111452,  111460,  104366,  104353,  111464
    1814,  111447,  111448,  111452,  111451,  111459,  111460,  111464,  111463
    1815,  111446,  111447,  111451,  111450,  111458,  111459,  111463,  111462
    1816,  111445,  111446,  111450,  111449,  111457,  111458,  111462,  111461
    1817,  111444,  104380,  104367,  111448,  111456,  104379,  104366,  111460
    1818,  111443,  111444,  111448,  111447,  111455,  111456,  111460,  111459
    1819,  111442,  111443,  111447,  111446,  111454,  111455,  111459,  111458
    1820,  111441,  111442,  111446,  111445,  111453,  111454,  111458,  111457
    1821,  111367,  104338,  104380,  111444,  111368,  104337,  104379,  111456
    1822,  111380,  111367,  111444,  111443,  111381,  111368,  111456,  111455
    1823,  111393,  111380,  111443,  111442,  111394,  111381,  111455,  111454
    1824,  111406,  111393,  111442,  111441,  111407,  111394,  111454,  111453
    1825,  111357,  111273,  111407,  111453,  111356,  111272,  111408,  111465
    1826,  111344,  111357,  111453,  111457,  111343,  111356,  111465,  111469
    1827,  111331,  111344,  111457,  111461,  111330,  111343,  111469,  111473
    1828,  111462,  111318,  111331,  111461,  111474,  111317,  111330,  111473
    1829,  111463,  111305,  111318,  111462,  111475,  111304,  111317,  111474
    1830,  111464,  111292,  111305,  111463,  111476,  111291,  111304,  111475
    1831,  104353,  104317,  111292,  111464,  104352,  104318,  111291,  111476
    1832,  111460,  104366,  104353,  111464,  111472,  104365,  104352,  111476
    1833,  111459,  111460,  111464,  111463,  111471,  111472,  111476,  111475
    1834,  111458,  111459,  111463,  111462,  111470,  111471,  111475,  111474
    1835,  111457,  111458,  111462,  111461,  111469,  111470,  111474,  111473
    1836,  111456,  104379,  104366,  111460,  111468,  104378,  104365,  111472
    1837,  111455,  111456,  111460,  111459,  111467,  111468,  111472,  111471
    1838,  111454,  111455,  111459,  111458,  111466,  111467,  111471,  111470
    1839,  111453,  111454,  111458,  111457,  111465,  111466,  111470,  111469
    1840,  111368,  104337,  104379,  111456,  111369,  104336,  104378,  111468
    1841,  111381,  111368,  111456,  111455,  111382,  111369,  111468,  111467
    1842,  111394,  111381,  111455,  111454,  111395,  111382,  111467,  111466
    1843,  111407,  111394,  111454,  111453,  111408,  111395,  111466,  111465
    1844,  111356,  111272,  111408,  111465,  111355,  111271,  111409,  111477
    1845,  111343,  111356,  111465,  111469,  111342,  111355,  111477,  111481
    1846,  111330,  111343,  111469,  111473,  111329,  111342,  111481,  111485
    1847,  111474,  111317,  111330,  111473,  111486,  111316,  111329,  111485
    1848,  111475,  111304,  111317,  111474,  111487,  111303,  111316,  111486
    1849,  111476,  111291,  111304,  111475,  111488,  111290,  111303,  111487
    1850,  104352,  104318,  111291,  111476,  104351,  104319,  111290,  111488
    1851,  111472,  104365,  104352,  111476,  111484,  104364,  104351,  111488
    1852,  111471,  111472,  111476,  111475,  111483,  111484,  111488,  111487
    1853,  111470,  111471,  111475,  111474,  111482,  111483,  111487,  111486
    1854,  111469,  111470,  111474,  111473,  111481,  111482,  111486,  111485
    1855,  111468,  104378,  104365,  111472,  111480,  104377,  104364,  111484
    1856,  111467,  111468,  111472,  111471,  111479,  111480,  111484,  111483
    1857,  111466,  111467,  111471,  111470,  111478,  111479,  111483,  111482
    1858,  111465,  111466,  111470,  111469,  111477,  111478,  111482,  111481
    1859,  111369,  104336,  104378,  111468,  111370,  104335,  104377,  111480
    1860,  111382,  111369,  111468,  111467,  111383,  111370,  111480,  111479
    1861,  111395,  111382,  111467,  111466,  111396,  111383,  111479,  111478
    1862,  111408,  111395,  111466,  111465,  111409,  111396,  111478,  111477
    1863,  111355,  111271,  111409,  111477,  111354,  111270,  111410,  111489
    1864,  111342,  111355,  111477,  111481,  111341,  111354,  111489,  111493
    1865,  111329,  111342,  111481,  111485,  111328,  111341,  111493,  111497
    1866,  111486,  111316,  111329,  111485,  111498,  111315,  111328,  111497
    1867,  111487,  111303,  111316,  111486,  111499,  111302,  111315,  111498
    1868,  111488,  111290,  111303,  111487,  111500,  111289,  111302,  111499
    1869,  104351,  104319,  111290,  111488,  104350,  104320,  111289,  111500
    1870,  111484,  104364,  104351,  111488,  111496,  104363,  104350,  111500
    1871,  111483,  111484,  111488,  111487,  111495,  111496,  111500,  111499
    1872,  111482,  111483,  111487,  111486,  111494,  111495,  111499,  111498
    1873,  111481,  111482,  111486,  111485,  111493,  111494,  111498,  111497
    1874,  111480,  104377,  104364,  111484,  111492,  104376,  104363,  111496
    1875,  111479,  111480,  111484,  111483,  111491,  111492,  111496,  111495
    1876,  111478,  111479,  111483,  111482,  111490,  111491,  111495,  111494
    1877,  111477,  111478,  111482,  111481,  111489,  111490,  111494,  111493
    1878,  111370,  104335,  104377,  111480,  111371,  104334,  104376,  111492
    1879,  111383,  111370,  111480,  111479,  111384,  111371,  111492,  111491
    1880,  111396,  111383,  111479,  111478,  111397,  111384,  111491,  111490
    1881,  111409,  111396,  111478,  111477,  111410,  111397,  111490,  111489
    1882,  111354,  111270,  111410,  111489,  111353,  111269,  111411,  111501
    1883,  111341,  111354,  111489,  111493,  111340,  111353,  111501,  111505
    1884,  111328,  111341,  111493,  111497,  111327,  111340,  111505,  111509
    1885,  111498,  111315,  111328,  111497,  111510,  111314,  111327,  111509
    1886,  111499,  111302,  111315,  111498,  111511,  111301,  111314,  111510
    1887,  111500,  111289,  111302,  111499,  111512,  111288,  111301,  111511
    1888,  104350,  104320,  111289,  111500,  104349,  104321,  111288,  111512
    1889,  111496,  104363,  104350,  111500,  111508,  104362,  104349,  111512
    1890,  111495,  111496,  111500,  111499,  111507,  111508,  111512,  111511
    1891,  111494,  111495,  111499,  111498,  111506,  111507,  111511,  111510
    1892,  111493,  111494,  111498,  111497,  111505,  111506,  111510,  111509
    1893,  111492,  104376,  104363,  111496,  111504,  104375,  104362,  111508
    1894,  111491,  111492,  111496,  111495,  111503,  111504,  111508,  111507
    1895,  111490,  111491,  111495,  111494,  111502,  111503,  111507,  111506
    1896,  111489,  111490,  111494,  111493,  111501,  111502,  111506,  111505
    1897,  111371,  104334,  104376,  111492,  111372,  104333,  104375,  111504
    1898,  111384,  111371,  111492,  111491,  111385,  111372,  111504,  111503
    1899,  111397,  111384,  111491,  111490,  111398,  111385,  111503,  111502
    1900,  111410,  111397,  111490,  111489,  111411,  111398,  111502,  111501
    1901,  111353,  111269,  111411,  111501,  111352,  111268,  111412,  111513
    1902,  111340,  111353,  111501,  111505,  111339,  111352,  111513,  111517
    1903,  111327,  111340,  111505,  111509,  111326,  111339,  111517,  111521
    1904,  111510,  111314,  111327,  111509,  111522,  111313,  111326,  111521
    1905,  111511,  111301,  111314,  111510,  111523,  111300,  111313,  111522
    1906,  111512,  111288,  111301,  111511,  111524,  111287,  111300,  111523
    1907,  104349,  104321,  111288,  111512,  104348,  104322,  111287,  111524
    1908,  111508,  104362,  104349,  111512,  111520,  104361,  104348,  111524
    1909,  111507,  111508,  111512,  111511,  111519,  111520,  111524,  111523
    1910,  111506,  111507,  111511,  111510,  111518,  111519,  111523,  111522
    1911,  111505,  111506,  111510,  111509,  111517,  111518,  111522,  111521
    1912,  111504,  104375,  104362,  111508,  111516,  104374,  104361,  111520
    1913,  111503,  111504,  111508,  111507,  111515,  111516,  111520,  111519
    1914,  111502,  111503,  111507,  111506,  111514,  111515,  111519,  111518
    1915,  111501,  111502,  111506,  111505,  111513,  111514,  111518,  111517
    1916,  111372,  104333,  104375,  111504,  111373,  104332,  104374,  111516
    1917,  111385,  111372,  111504,  111503,  111386,  111373,  111516,  111515
    1918,  111398,  111385,  111503,  111502,  111399,  111386,  111515,  111514
    1919,  111411,  111398,  111502,  111501,  111412,  111399,  111514,  111513
    1920,  111352,  111268,  111412,  111513,  111351,  111267,  111413,  111525
    1921,  111339,  111352,  111513,  111517,  111338,  111351,  111525,  111529
    1922,  111326,  111339,  111517,  111521,  111325,  111338,  111529,  111533
    1923,  111522,  111313,  111326,  111521,  111534,  111312,  111325,  111533
    1924,  111523,  111300,  111313,  111522,  111535,  111299,  111312,  111534
    1925,  111524,  111287,  111300,  111523,  111536,  111286,  111299,  111535
    1926,  104348,  104322,  111287,  111524,  104347,  104323,  111286,  111536
    1927,  111520,  104361,  104348,  111524,  111532,  104360,  104347,  111536
    1928,  111519,  111520,  111524,  111523,  111531,  111532,  111536,  111535
    1929,  111518,  111519,  111523,  111522,  111530,  111531,  111535,  111534
    1930,  111517,  111518,  111522,  111521,  111529,  111530,  111534,  111533
    1931,  111516,  104374,  104361,  111520,  111528,  104373,  104360,  111532
    1932,  111515,  111516,  111520,  111519,  111527,  111528,  111532,  111531
    1933,  111514,  111515,  111519,  111518,  111526,  111527,  111531,  111530
    1934,  111513,  111514,  111518,  111517,  111525,  111526,  111530,  111529
    1935,  111373,  104332,  104374,  111516,  111374,  104331,  104373,  111528
    1936,  111386,  111373,  111516,  111515,  111387,  111374,  111528,  111527
    1937,  111399,  111386,  111515,  111514,  111400,  111387,  111527,  111526
    1938,  111412,  111399,  111514,  111513,  111413,  111400,  111526,  111525
    1939,  111351,  111267,  111413,  111525,  111350,  111266,  111414,  111537
    1940,  111338,  111351,  111525,  111529,  111337,  111350,  111537,  111541
    1941,  111325,  111338,  111529,  111533,  111324,  111337,  111541,  111545
    1942,  111534,  111312,  111325,  111533,  111546,  111311,  111324,  111545
    1943,  111535,  111299,  111312,  111534,  111547,  111298,  111311,  111546
    1944,  111536,  111286,  111299,  111535,  111548,  111285,  111298,  111547
    1945,  104347,  104323,  111286,  111536,  104346,  104324,  111285,  111548
    1946,  111532,  104360,  104347,  111536,  111544,  104359,  104346,  111548
    1947,  111531,  111532,  111536,  111535,  111543,  111544,  111548,  111547
    1948,  111530,  111531,  111535,  111534,  111542,  111543,  111547,  111546
    1949,  111529,  111530,  111534,  111533,  111541,  111542,  111546,  111545
    1950,  111528,  104373,  104360,  111532,  111540,  104372,  104359,  111544
    1951,  111527,  111528,  111532,  111531,  111539,  111540,  111544,  111543
    1952,  111526,  111527,  111531,  111530,  111538,  111539,  111543,  111542
    1953,  111525,  111526,  111530,  111529,  111537,  111538,  111542,  111541
    1954,  111374,  104331,  104373,  111528,  111375,  104330,  104372,  111540
    1955,  111387,  111374,  111528,  111527,  111388,  111375,  111540,  111539
    1956,  111400,  111387,  111527,  111526,  111401,  111388,  111539,  111538
    1957,  111413,  111400,  111526,  111525,  111414,  111401,  111538,  111537
    1958,  111350,  111266,  111414,  111537,  111349,  111265,  111415,  111549
    1959,  111337,  111350,  111537,  111541,  111336,  111349,  111549,  111553
    1960,  111324,  111337,  111541,  111545,  111323,  111336,  111553,  111557
    1961,  111546,  111311,  111324,  111545,  111558,  111310,  111323,  111557
    1962,  111547,  111298,  111311,  111546,  111559,  111297,  111310,  111558
    1963,  111548,  111285,  111298,  111547,  111560,  111284,  111297,  111559
    1964,  104346,  104324,  111285,  111548,  104345,  104325,  111284,  111560
    1965,  111544,  104359,  104346,  111548,  111556,  104358,  104345,  111560
    1966,  111543,  111544,  111548,  111547,  111555,  111556,  111560,  111559
    1967,  111542,  111543,  111547,  111546,  111554,  111555,  111559,  111558
    1968,  111541,  111542,  111546,  111545,  111553,  111554,  111558,  111557
    1969,  111540,  104372,  104359,  111544,  111552,  104371,  104358,  111556
    1970,  111539,  111540,  111544,  111543,  111551,  111552,  111556,  111555
    1971,  111538,  111539,  111543,  111542,  111550,  111551,  111555,  111554
    1972,  111537,  111538,  111542,  111541,  111549,  111550,  111554,  111553
    1973,  111375,  104330,  104372,  111540,  111376,  104329,  104371,  111552
    1974,  111388,  111375,  111540,  111539,  111389,  111376,  111552,  111551
    1975,  111401,  111388,  111539,  111538,  111402,  111389,  111551,  111550
    1976,  111414,  111401,  111538,  111537,  111415,  111402,  111550,  111549
    1977,  111349,  111265,  111415,  111549,  111348,  111264,  111416,  111561
    1978,  111336,  111349,  111549,  111553,  111335,  111348,  111561,  111565
    1979,  111323,  111336,  111553,  111557,  111322,  111335,  111565,  111569
    1980,  111558,  111310,  111323,  111557,  111570,  111309,  111322,  111569
    1981,  111559,  111297,  111310,  111558,  111571,  111296,  111309,  111570
    1982,  111560,  111284,  111297,  111559,  111572,  111283,  111296,  111571
    1983,  104345,  104325,  111284,  111560,  104344,  104326,  111283,  111572
    1984,  111556,  104358,  104345,  111560,  111568,  104357,  104344,  111572
    1985,  111555,  111556,  111560,  111559,  111567,  111568,  111572,  111571
    1986,  111554,  111555,  111559,  111558,  111566,  111567,  111571,  111570
    1987,  111553,  111554,  111558,  111557,  111565,  111566,  111570,  111569
    1988,  111552,  104371,  104358,  111556,  111564,  104370,  104357,  111568
    1989,  111551,  111552,  111556,  111555,  111563,  111564,  111568,  111567
    1990,  111550,  111551,  111555,  111554,  111562,  111563,  111567,  111566
    1991,  111549,  111550,  111554,  111553,  111561,  111562,  111566,  111565
    1992,  111376,  104329,  104371,  111552,  111377,  104328,  104370,  111564
    1993,  111389,  111376,  111552,  111551,  111390,  111377,  111564,  111563
    1994,  111402,  111389,  111551,  111550,  111403,  111390,  111563,  111562
    1995,  111415,  111402,  111550,  111549,  111416,  111403,  111562,  111561
    1996,  111348,  111264,  111416,  111561,  111282,  111263,  111364,  111573
    1997,  111335,  111348,  111561,  111565,  111281,  111282,  111573,  111577
    1998,  111322,  111335,  111565,  111569,  111280,  111281,  111577,  111581
    1999,  111570,  111309,  111322,  111569,  111582,  111279,  111280,  111581
    2000,  111571,  111296,  111309,  111570,  111583,  111278,  111279,  111582
    2001,  111572,  111283,  111296,  111571,  111584,  111277,  111278,  111583
    2002,  104344,  104326,  111283,  111572,  104341,  104313,  111277,  111584
    2003,  111568,  104357,  104344,  111572,  111580,  104342,  104341,  111584
    2004,  111567,  111568,  111572,  111571,  111579,  111580,  111584,  111583
    2005,  111566,  111567,  111571,  111570,  111578,  111579,  111583,  111582
    2006,  111565,  111566,  111570,  111569,  111577,  111578,  111582,  111581
    2007,  111564,  104370,  104357,  111568,  111576,  104343,  104342,  111580
    2008,  111563,  111564,  111568,  111567,  111575,  111576,  111580,  111579
    2009,  111562,  111563,  111567,  111566,  111574,  111575,  111579,  111578
    2010,  111561,  111562,  111566,  111565,  111573,  111574,  111578,  111577
    2011,  111377,  104328,  104370,  111564,  111361,  104327,  104343,  111576
    2012,  111390,  111377,  111564,  111563,  111362,  111361,  111576,  111575
    2013,  111403,  111390,  111563,  111562,  111363,  111362,  111575,  111574
    2014,  111416,  111403,  111562,  111561,  111364,  111363,  111574,  111573
*ELEMENT, TYPE=C3D8, ELSET=plate
    2015,  106393,  106390,  106401,  106402,  105880,  105877,  105888,  105889
    2016,  106402,  106403,  106394,  106393,  105889,  105890,  105881,  105880
    2017,  106395,  106394,  106403,  106404,  105882,  105881,  105890,  105891
    2018,  106397,  106395,  106404,  106396,  105884,  105882,  105891,  105883
    2019,  106392,  106395,  106397,  106398,  105879,  105882,  105884,  105885
    2020,  106387,  106388,  106396,  106404,  105874,  105875,  105883,  105891
    2021,  106386,  106387,  106404,  106403,  105873,  105874,  105891,  105890
    2022,  106385,  106386,  106403,  106402,  105872,  105873,  105890,  105889
    2023,  106384,  106385,  106402,  106401,  105871,  105872,  105889,  105888
    2024,  106383,  106384,  106401,  106390,  105870,  105871,  105888,  105877
    2025,  106391,  106392,  106398,  106399,  105878,  105879,  105885,  105886
    2026,  106389,  106391,  106399,  106400,  105876,  105878,  105886,  105887
    2027,  106381,  106382,  106389,  106400,  105868,  105869,  105876,  105887
    2028,  106380,  106381,  106400,  106399,  105867,  105868,  105887,  105886
    2029,  106379,  106380,  106399,  106398,  105866,  105867,  105886,  105885
    2030,  106378,  106379,  106398,  106397,  105865,  105866,  105885,  105884
    2031,  106377,  106378,  106397,  106396,  105864,  105865,  105884,  105883
    2032,  106376,  106377,  106396,  106388,  105863,  105864,  105883,  105875
    2033,  106392,  106351,  106394,  106395,  105879,  105838,  105881,  105882
    2034,  106351,  106352,  106393,  106394,  105838,  105839,  105880,  105881
    2035,  106352,  106353,  106390,  106393,  105839,  105840,  105877,  105880
    2036,  106350,  106351,  106392,  106391,  105837,  105838,  105879,  105878
    2037,  106349,  106350,  106391,  106389,  105836,  105837,  105878,  105876
    2038,  106372,  106373,  106383,  106390,  105859,  105860,  105870,  105877
    2039,  106354,  106372,  106390,  106353,  105841,  105859,  105877,  105840
    2040,  106375,  106348,  106349,  106389,  105862,  105835,  105836,  105876
    2041,  106374,  106375,  106389,  106382,  105861,  105862,  105876,  105869
    2042,  106361,  106362,  106376,  106388,  105848,  105849,  105863,  105875
    2043,  106360,  106361,  106388,  106387,  105847,  105848,  105875,  105874
    2044,  106359,  106360,  106387,  106386,  105846,  105847,  105874,  105873
    2045,  106358,  106359,  106386,  106385,  105845,  105846,  105873,  105872
    2046,  106357,  106358,  106385,  106384,  105844,  105845,  105872,  105871
    2047,  106356,  106357,  106384,  106383,  105843,  105844,  105871,  105870
    2048,  106355,  106356,  106383,  106373,  105842,  105843,  105870,  105860
    2049,  106370,  106371,  106374,  106382,  105857,  105858,  105861,  105869
    2050,  106369,  106370,  106382,  106381,  105856,  105857,  105869,  105868
    2051,  106368,  106369,  106381,  106380,  105855,  105856,  105868,  105867
    2052,  106367,  106368,  106380,  106379,  105854,  105855,  105867,  105866
    2053,  106366,  106367,  106379,  106378,  105853,  105854,  105866,  105865
    2054,  106365,  106366,  106378,  106377,  105852,  105853,  105865,  105864
    2055,  106364,  106365,  106377,  106376,  105851,  105852,  105864,  105863
    2056,  106363,  106364,  106376,  106362,  105850,  105851,  105863,  105849
    2057,  106282,  106283,  106348,  106375,  105801,  105802,  105835,  105862
    2058,  106281,  106282,  106375,  106374,  105800,  105801,  105862,  105861
    2059,  106280,  106281,  106374,  106371,  105799,  105800,  105861,  105858
    2060,  106308,  106309,  106355,  106373,  105813,  105812,  105842,  105860
    2061,  106307,  106308,  106373,  106372,  105814,  105813,  105860,  105859
    2062,  106306,  106307,  106372,  106354,  105815,  105814,  105859,  105841
    2063,  106321,  106279,  106280,  106371,  105826,  105797,  105799,  105858
    2064,  106322,  106321,  106371,  106370,  105827,  105826,  105858,  105857
    2065,  106323,  106322,  106370,  106369,  105828,  105827,  105857,  105856
    2066,  106324,  106323,  106369,  106368,  105829,  105828,  105856,  105855
    2067,  106325,  106324,  106368,  106367,  105830,  105829,  105855,  105854
    2068,  106326,  106325,  106367,  106366,  105831,  105830,  105854,  105853
    2069,  106327,  106326,  106366,  106365,  105832,  105831,  105853,  105852
    2070,  106328,  106327,  106365,  106364,  105833,  105832,  105852,  105851
    2071,  106329,  106328,  106364,  106363,  105834,  105833,  105851,  105850
    2072,  106347,  106311,  106329,  106363,  105817,  105816,  105834,  105850
    2073,  106346,  106347,  106363,  106362,  105818,  105817,  105850,  105849
    2074,  106345,  106346,  106362,  106361,  105819,  105818,  105849,  105848
    2075,  106344,  106345,  106361,  106360,  105820,  105819,  105848,  105847
    2076,  106343,  106344,  106360,  106359,  105821,  105820,  105847,  105846
    2077,  106342,  106343,  106359,  106358,  105822,  105821,  105846,  105845
    2078,  106341,  106342,  106358,  106357,  105823,  105822,  105845,  105844
    2079,  106340,  106341,  106357,  106356,  105824,  105823,  105844,  105843
    2080,  106339,  106340,  106356,  106355,  105825,  105824,  105843,  105842
    2081,  106305,  106339,  106355,  106309,  105811,  105825,  105842,  105812
    2082,  106299,  106292,  106306,  106354,  105810,  105803,  105815,  105841
    2083,  106298,  106299,  106354,  106353,  105809,  105810,  105841,  105840
    2084,  106297,  106298,  106353,  106352,  105808,  105809,  105840,  105839
    2085,  106296,  106297,  106352,  106351,  105807,  105808,  105839,  105838
    2086,  106295,  106296,  106351,  106350,  105806,  105807,  105838,  105837
    2087,  106294,  106295,  106350,  106349,  105805,  105806,  105837,  105836
    2088,  106293,  106294,  106349,  106348,  105804,  105805,  105836,  105835
    2089,  106278,  106293,  106348,  106283,  105798,  105804,  105835,  105802
    2090,  106450,  106447,  106458,  106459,  106393,  106390,  106401,  106402
    2091,  106459,  106460,  106451,  106450,  106402,  106403,  106394,  106393
    2092,  106452,  106451,  106460,  106461,  106395,  106394,  106403,  106404
    2093,  106454,  106452,  106461,  106453,  106397,  106395,  106404,  106396
    2094,  106449,  106452,  106454,  106455,  106392,  106395,  106397,  106398
    2095,  106444,  106445,  106453,  106461,  106387,  106388,  106396,  106404
    2096,  106443,  106444,  106461,  106460,  106386,  106387,  106404,  106403
    2097,  106442,  106443,  106460,  106459,  106385,  106386,  106403,  106402
    2098,  106441,  106442,  106459,  106458,  106384,  106385,  106402,  106401
    2099,  106440,  106441,  106458,  106447,  106383,  106384,  106401,  106390
    2100,  106448,  106449,  106455,  106456,  106391,  106392,  106398,  106399
    2101,  106446,  106448,  106456,  106457,  106389,  106391,  106399,  106400
    2102,  106438,  106439,  106446,  106457,  106381,  106382,  106389,  106400
    2103,  106437,  106438,  106457,  106456,  106380,  106381,  106400,  106399
    2104,  106436,  106437,  106456,  106455,  106379,  106380,  106399,  106398
    2105,  106435,  106436,  106455,  106454,  106378,  106379,  106398,  106397
    2106,  106434,  106435,  106454,  106453,  106377,  106378,  106397,  106396
    2107,  106433,  106434,  106453,  106445,  106376,  106377,  106396,  106388
    2108,  106449,  106408,  106451,  106452,  106392,  106351,  106394,  106395
    2109,  106408,  106409,  106450,  106451,  106351,  106352,  106393,  106394
    2110,  106409,  106410,  106447,  106450,  106352,  106353,  106390,  106393
    2111,  106407,  106408,  106449,  106448,  106350,  106351,  106392,  106391
    2112,  106406,  106407,  106448,  106446,  106349,  106350,  106391,  106389
    2113,  106429,  106430,  106440,  106447,  106372,  106373,  106383,  106390
    2114,  106411,  106429,  106447,  106410,  106354,  106372,  106390,  106353
    2115,  106432,  106405,  106406,  106446,  106375,  106348,  106349,  106389
    2116,  106431,  106432,  106446,  106439,  106374,  106375,  106389,  106382
    2117,  106418,  106419,  106433,  106445,  106361,  106362,  106376,  106388
    2118,  106417,  106418,  106445,  106444,  106360,  106361,  106388,  106387
    2119,  106416,  106417,  106444,  106443,  106359,  106360,  106387,  106386
    2120,  106415,  106416,  106443,  106442,  106358,  106359,  106386,  106385
    2121,  106414,  106415,  106442,  106441,  106357,  106358,  106385,  106384
    2122,  106413,  106414,  106441,  106440,  106356,  106357,  106384,  106383
    2123,  106412,  106413,  106440,  106430,  106355,  106356,  106383,  106373
    2124,  106427,  106428,  106431,  106439,  106370,  106371,  106374,  106382
    2125,  106426,  106427,  106439,  106438,  106369,  106370,  106382,  106381
    2126,  106425,  106426,  106438,  106437,  106368,  106369,  106381,  106380
    2127,  106424,  106425,  106437,  106436,  106367,  106368,  106380,  106379
    2128,  106423,  106424,  106436,  106435,  106366,  106367,  106379,  106378
    2129,  106422,  106423,  106435,  106434,  106365,  106366,  106378,  106377
    2130,  106421,  106422,  106434,  106433,  106364,  106365,  106377,  106376
    2131,  106420,  106421,  106433,  106419,  106363,  106364,  106376,  106362
    2132,  106275,  106274,  106405,  106432,  106282,  106283,  106348,  106375
    2133,  106276,  106275,  106432,  106431,  106281,  106282,  106375,  106374
    2134,  106277,  106276,  106431,  106428,  106280,  106281,  106374,  106371
    2135,  106303,  106304,  106412,  106430,  106308,  106309,  106355,  106373
    2136,  106302,  106303,  106430,  106429,  106307,  106308,  106373,  106372
    2137,  106301,  106302,  106429,  106411,  106306,  106307,  106372,  106354
    2138,  106320,  106273,  106277,  106428,  106321,  106279,  106280,  106371
    2139,  106319,  106320,  106428,  106427,  106322,  106321,  106371,  106370
    2140,  106318,  106319,  106427,  106426,  106323,  106322,  106370,  106369
    2141,  106317,  106318,  106426,  106425,  106324,  106323,  106369,  106368
    2142,  106316,  106317,  106425,  106424,  106325,  106324,  106368,  106367
    2143,  106315,  106316,  106424,  106423,  106326,  106325,  106367,  106366
    2144,  106314,  106315,  106423,  106422,  106327,  106326,  106366,  106365
    2145,  106313,  106314,  106422,  106421,  106328,  106327,  106365,  106364
    2146,  106312,  106313,  106421,  106420,  106329,  106328,  106364,  106363
    2147,  106338,  106310,  106312,  106420,  106347,  106311,  106329,  106363
    2148,  106337,  106338,  106420,  106419,  106346,  106347,  106363,  106362
    2149,  106336,  106337,  106419,  106418,  106345,  106346,  106362,  106361
    2150,  106335,  106336,  106418,  106417,  106344,  106345,  106361,  106360
    2151,  106334,  106335,  106417,  106416,  106343,  106344,  106360,  106359
    2152,  106333,  106334,  106416,  106415,  106342,  106343,  106359,  106358
    2153,  106332,  106333,  106415,  106414,  106341,  106342,  106358,  106357
    2154,  106331,  106332,  106414,  106413,  106340,  106341,  106357,  106356
    2155,  106330,  106331,  106413,  106412,  106339,  106340,  106356,  106355
    2156,  106300,  106330,  106412,  106304,  106305,  106339,  106355,  106309
    2157,  106285,  106284,  106301,  106411,  106299,  106292,  106306,  106354
    2158,  106286,  106285,  106411,  106410,  106298,  106299,  106354,  106353
    2159,  106287,  106286,  106410,  106409,  106297,  106298,  106353,  106352
    2160,  106288,  106287,  106409,  106408,  106296,  106297,  106352,  106351
    2161,  106289,  106288,  106408,  106407,  106295,  106296,  106351,  106350
    2162,  106290,  106289,  106407,  106406,  106294,  106295,  106350,  106349
    2163,  106291,  106290,  106406,  106405,  106293,  106294,  106349,  106348
    2164,  106272,  106291,  106405,  106274,  106278,  106293,  106348,  106283
    2165,  105880,  105877,  105888,  105889,  106089,  106086,  106097,  106098
    2166,  105889,  105890,  105881,  105880,  106098,  106099,  106090,  106089
    2167,  105882,  105881,  105890,  105891,  106091,  106090,  106099,  106100
    2168,  105884,  105882,  105891,  105883,  106093,  106091,  106100,  106092
    2169,  105879,  105882,  105884,  105885,  106088,  106091,  106093,  106094
    2170,  105874,  105875,  105883,  105891,  106083,  106084,  106092,  106100
    2171,  105873,  105874,  105891,  105890,  106082,  106083,  106100,  106099
    2172,  105872,  105873,  105890,  105889,  106081,  106082,  106099,  106098
    2173,  105871,  105872,  105889,  105888,  106080,  106081,  106098,  106097
    2174,  105870,  105871,  105888,  105877,  106079,  106080,  106097,  106086
    2175,  105878,  105879,  105885,  105886,  106087,  106088,  106094,  106095
    2176,  105876,  105878,  105886,  105887,  106085,  106087,  106095,  106096
    2177,  105868,  105869,  105876,  105887,  106077,  106078,  106085,  106096
    2178,  105867,  105868,  105887,  105886,  106076,  106077,  106096,  106095
    2179,  105866,  105867,  105886,  105885,  106075,  106076,  106095,  106094
    2180,  105865,  105866,  105885,  105884,  106074,  106075,  106094,  106093
    2181,  105864,  105865,  105884,  105883,  106073,  106074,  106093,  106092
    2182,  105863,  105864,  105883,  105875,  106072,  106073,  106092,  106084
    2183,  105879,  105838,  105881,  105882,  106088,  106047,  106090,  106091
    2184,  105838,  105839,  105880,  105881,  106047,  106048,  106089,  106090
    2185,  105839,  105840,  105877,  105880,  106048,  106049,  106086,  106089
    2186,  105837,  105838,  105879,  105878,  106046,  106047,  106088,  106087
    2187,  105836,  105837,  105878,  105876,  106045,  106046,  106087,  106085
    2188,  105859,  105860,  105870,  105877,  106068,  106069,  106079,  106086
    2189,  105841,  105859,  105877,  105840,  106050,  106068,  106086,  106049
    2190,  105862,  105835,  105836,  105876,  106071,  106044,  106045,  106085
    2191,  105861,  105862,  105876,  105869,  106070,  106071,  106085,  106078
    2192,  105848,  105849,  105863,  105875,  106057,  106058,  106072,  106084
    2193,  105847,  105848,  105875,  105874,  106056,  106057,  106084,  106083
    2194,  105846,  105847,  105874,  105873,  106055,  106056,  106083,  106082
    2195,  105845,  105846,  105873,  105872,  106054,  106055,  106082,  106081
    2196,  105844,  105845,  105872,  105871,  106053,  106054,  106081,  106080
    2197,  105843,  105844,  105871,  105870,  106052,  106053,  106080,  106079
    2198,  105842,  105843,  105870,  105860,  106051,  106052,  106079,  106069
    2199,  105857,  105858,  105861,  105869,  106066,  106067,  106070,  106078
    2200,  105856,  105857,  105869,  105868,  106065,  106066,  106078,  106077
    2201,  105855,  105856,  105868,  105867,  106064,  106065,  106077,  106076
    2202,  105854,  105855,  105867,  105866,  106063,  106064,  106076,  106075
    2203,  105853,  105854,  105866,  105865,  106062,  106063,  106075,  106074
    2204,  105852,  105853,  105865,  105864,  106061,  106062,  106074,  106073
    2205,  105851,  105852,  105864,  105863,  106060,  106061,  106073,  106072
    2206,  105850,  105851,  105863,  105849,  106059,  106060,  106072,  106058
    2207,  105801,  105802,  105835,  105862,  105906,  105907,  106044,  106071
    2208,  105800,  105801,  105862,  105861,  105905,  105906,  106071,  106070
    2209,  105799,  105800,  105861,  105858,  105904,  105905,  106070,  106067
    2210,  105813,  105812,  105842,  105860,  105964,  105967,  106051,  106069
    2211,  105814,  105813,  105860,  105859,  105961,  105964,  106069,  106068
    2212,  105815,  105814,  105859,  105841,  105958,  105961,  106068,  106050
    2213,  105826,  105797,  105799,  105858,  106017,  105901,  105904,  106067
    2214,  105827,  105826,  105858,  105857,  106020,  106017,  106067,  106066
    2215,  105828,  105827,  105857,  105856,  106023,  106020,  106066,  106065
    2216,  105829,  105828,  105856,  105855,  106026,  106023,  106065,  106064
    2217,  105830,  105829,  105855,  105854,  106029,  106026,  106064,  106063
    2218,  105831,  105830,  105854,  105853,  106032,  106029,  106063,  106062
    2219,  105832,  105831,  105853,  105852,  106035,  106032,  106062,  106061
    2220,  105833,  105832,  105852,  105851,  106038,  106035,  106061,  106060
    2221,  105834,  105833,  105851,  105850,  106041,  106038,  106060,  106059
    2222,  105817,  105816,  105834,  105850,  106007,  105971,  106041,  106059
    2223,  105818,  105817,  105850,  105849,  106004,  106007,  106059,  106058
    2224,  105819,  105818,  105849,  105848,  106001,  106004,  106058,  106057
    2225,  105820,  105819,  105848,  105847,  105998,  106001,  106057,  106056
    2226,  105821,  105820,  105847,  105846,  105995,  105998,  106056,  106055
    2227,  105822,  105821,  105846,  105845,  105992,  105995,  106055,  106054
    2228,  105823,  105822,  105845,  105844,  105989,  105992,  106054,  106053
    2229,  105824,  105823,  105844,  105843,  105986,  105989,  106053,  106052
    2230,  105825,  105824,  105843,  105842,  105983,  105986,  106052,  106051
    2231,  105811,  105825,  105842,  105812,  105949,  105983,  106051,  105967
    2232,  105810,  105803,  105815,  105841,  105947,  105919,  105958,  106050
    2233,  105809,  105810,  105841,  105840,  105944,  105947,  106050,  106049
    2234,  105808,  105809,  105840,  105839,  105941,  105944,  106049,  106048
    2235,  105807,  105808,  105839,  105838,  105938,  105941,  106048,  106047
    2236,  105806,  105807,  105838,  105837,  105935,  105938,  106047,  106046
    2237,  105805,  105806,  105837,  105836,  105932,  105935,  106046,  106045
    2238,  105804,  105805,  105836,  105835,  105929,  105932,  106045,  106044
    2239,  105798,  105804,  105835,  105802,  105895,  105929,  106044,  105907
    2240,  106089,  106086,  106097,  106098,  106146,  106143,  106154,  106155
    2241,  106098,  106099,  106090,  106089,  106155,  106156,  106147,  106146
    2242,  106091,  106090,  106099,  106100,  106148,  106147,  106156,  106157
    2243,  106093,  106091,  106100,  106092,  106150,  106148,  106157,  106149
    2244,  106088,  106091,  106093,  106094,  106145,  106148,  106150,  106151
    2245,  106083,  106084,  106092,  106100,  106140,  106141,  106149,  106157
    2246,  106082,  106083,  106100,  106099,  106139,  106140,  106157,  106156
    2247,  106081,  106082,  106099,  106098,  106138,  106139,  106156,  106155
    2248,  106080,  106081,  106098,  106097,  106137,  106138,  106155,  106154
    2249,  106079,  106080,  106097,  106086,  106136,  106137,  106154,  106143
    2250,  106087,  106088,  106094,  106095,  106144,  106145,  106151,  106152
    2251,  106085,  106087,  106095,  106096,  106142,  106144,  106152,  106153
    2252,  106077,  106078,  106085,  106096,  106134,  106135,  106142,  106153
    2253,  106076,  106077,  106096,  106095,  106133,  106134,  106153,  106152
    2254,  106075,  106076,  106095,  106094,  106132,  106133,  106152,  106151
    2255,  106074,  106075,  106094,  106093,  106131,  106132,  106151,  106150
    2256,  106073,  106074,  106093,  106092,  106130,  106131,  106150,  106149
    2257,  106072,  106073,  106092,  106084,  106129,  106130,  106149,  106141
    2258,  106088,  106047,  106090,  106091,  106145,  106104,  106147,  106148
    2259,  106047,  106048,  106089,  106090,  106104,  106105,  106146,  106147
    2260,  106048,  106049,  106086,  106089,  106105,  106106,  106143,  106146
    2261,  106046,  106047,  106088,  106087,  106103,  106104,  106145,  106144
    2262,  106045,  106046,  106087,  106085,  106102,  106103,  106144,  106142
    2263,  106068,  106069,  106079,  106086,  106125,  106126,  106136,  106143
    2264,  106050,  106068,  106086,  106049,  106107,  106125,  106143,  106106
    2265,  106071,  106044,  106045,  106085,  106128,  106101,  106102,  106142
    2266,  106070,  106071,  106085,  106078,  106127,  106128,  106142,  106135
    2267,  106057,  106058,  106072,  106084,  106114,  106115,  106129,  106141
    2268,  106056,  106057,  106084,  106083,  106113,  106114,  106141,  106140
    2269,  106055,  106056,  106083,  106082,  106112,  106113,  106140,  106139
    2270,  106054,  106055,  106082,  106081,  106111,  106112,  106139,  106138
    2271,  106053,  106054,  106081,  106080,  106110,  106111,  106138,  106137
    2272,  106052,  106053,  106080,  106079,  106109,  106110,  106137,  106136
    2273,  106051,  106052,  106079,  106069,  106108,  106109,  106136,  106126
    2274,  106066,  106067,  106070,  106078,  106123,  106124,  106127,  106135
    2275,  106065,  106066,  106078,  106077,  106122,  106123,  106135,  106134
    2276,  106064,  106065,  106077,  106076,  106121,  106122,  106134,  106133
    2277,  106063,  106064,  106076,  106075,  106120,  106121,  106133,  106132
    2278,  106062,  106063,  106075,  106074,  106119,  106120,  106132,  106131
    2279,  106061,  106062,  106074,  106073,  106118,  106119,  106131,  106130
    2280,  106060,  106061,  106073,  106072,  106117,  106118,  106130,  106129
    2281,  106059,  106060,  106072,  106058,  106116,  106117,  106129,  106115
    2282,  105906,  105907,  106044,  106071,  105910,  105911,  106101,  106128
    2283,  105905,  105906,  106071,  106070,  105909,  105910,  106128,  106127
    2284,  105904,  105905,  106070,  106067,  105908,  105909,  106127,  106124
    2285,  105964,  105967,  106051,  106069,  105963,  105966,  106108,  106126
    2286,  105961,  105964,  106069,  106068,  105960,  105963,  106126,  106125
    2287,  105958,  105961,  106068,  106050,  105957,  105960,  106125,  106107
    2288,  106017,  105901,  105904,  106067,  106018,  105902,  105908,  106124
    2289,  106020,  106017,  106067,  106066,  106021,  106018,  106124,  106123
    2290,  106023,  106020,  106066,  106065,  106024,  106021,  106123,  106122
    2291,  106026,  106023,  106065,  106064,  106027,  106024,  106122,  106121
    2292,  106029,  106026,  106064,  106063,  106030,  106027,  106121,  106120
    2293,  106032,  106029,  106063,  106062,  106033,  106030,  106120,  106119
    2294,  106035,  106032,  106062,  106061,  106036,  106033,  106119,  106118
    2295,  106038,  106035,  106061,  106060,  106039,  106036,  106118,  106117
    2296,  106041,  106038,  106060,  106059,  106042,  106039,  106117,  106116
    2297,  106007,  105971,  106041,  106059,  106006,  105970,  106042,  106116
    2298,  106004,  106007,  106059,  106058,  106003,  106006,  106116,  106115
    2299,  106001,  106004,  106058,  106057,  106000,  106003,  106115,  106114
    2300,  105998,  106001,  106057,  106056,  105997,  106000,  106114,  106113
    2301,  105995,  105998,  106056,  106055,  105994,  105997,  106113,  106112
    2302,  105992,  105995,  106055,  106054,  105991,  105994,  106112,  106111
    2303,  105989,  105992,  106054,  106053,  105988,  105991,  106111,  106110
    2304,  105986,  105989,  106053,  106052,  105985,  105988,  106110,  106109
    2305,  105983,  105986,  106052,  106051,  105982,  105985,  106109,  106108
    2306,  105949,  105983,  106051,  105967,  105950,  105982,  106108,  105966
    2307,  105947,  105919,  105958,  106050,  105946,  105918,  105957,  106107
    2308,  105944,  105947,  106050,  106049,  105943,  105946,  106107,  106106
    2309,  105941,  105944,  106049,  106048,  105940,  105943,  106106,  106105
    2310,  105938,  105941,  106048,  106047,  105937,  105940,  106105,  106104
    2311,  105935,  105938,  106047,  106046,  105934,  105937,  106104,  106103
    2312,  105932,  105935,  106046,  106045,  105931,  105934,  106103,  106102
    2313,  105929,  105932,  106045,  106044,  105928,  105931,  106102,  106101
    2314,  105895,  105929,  106044,  105907,  105894,  105928,  106101,  105911
    2315,  106146,  106143,  106154,  106155,  106203,  106200,  106211,  106212
    2316,  106155,  106156,  106147,  106146,  106212,  106213,  106204,  106203
    2317,  106148,  106147,  106156,  106157,  106205,  106204,  106213,  106214
    2318,  106150,  106148,  106157,  106149,  106207,  106205,  106214,  106206
    2319,  106145,  106148,  106150,  106151,  106202,  106205,  106207,  106208
    2320,  106140,  106141,  106149,  106157,  106197,  106198,  106206,  106214
    2321,  106139,  106140,  106157,  106156,  106196,  106197,  106214,  106213
    2322,  106138,  106139,  106156,  106155,  106195,  106196,  106213,  106212
    2323,  106137,  106138,  106155,  106154,  106194,  106195,  106212,  106211
    2324,  106136,  106137,  106154,  106143,  106193,  106194,  106211,  106200
    2325,  106144,  106145,  106151,  106152,  106201,  106202,  106208,  106209
    2326,  106142,  106144,  106152,  106153,  106199,  106201,  106209,  106210
    2327,  106134,  106135,  106142,  106153,  106191,  106192,  106199,  106210
    2328,  106133,  106134,  106153,  106152,  106190,  106191,  106210,  106209
    2329,  106132,  106133,  106152,  106151,  106189,  106190,  106209,  106208
    2330,  106131,  106132,  106151,  106150,  106188,  106189,  106208,  106207
    2331,  106130,  106131,  106150,  106149,  106187,  106188,  106207,  106206
    2332,  106129,  106130,  106149,  106141,  106186,  106187,  106206,  106198
    2333,  106145,  106104,  106147,  106148,  106202,  106161,  106204,  106205
    2334,  106104,  106105,  106146,  106147,  106161,  106162,  106203,  106204
    2335,  106105,  106106,  106143,  106146,  106162,  106163,  106200,  106203
    2336,  106103,  106104,  106145,  106144,  106160,  106161,  106202,  106201
    2337,  106102,  106103,  106144,  106142,  106159,  106160,  106201,  106199
    2338,  106125,  106126,  106136,  106143,  106182,  106183,  106193,  106200
    2339,  106107,  106125,  106143,  106106,  106164,  106182,  106200,  106163
    2340,  106128,  106101,  106102,  106142,  106185,  106158,  106159,  106199
    2341,  106127,  106128,  106142,  106135,  106184,  106185,  106199,  106192
    2342,  106114,  106115,  106129,  106141,  106171,  106172,  106186,  106198
    2343,  106113,  106114,  106141,  106140,  106170,  106171,  106198,  106197
    2344,  106112,  106113,  106140,  106139,  106169,  106170,  106197,  106196
    2345,  106111,  106112,  106139,  106138,  106168,  106169,  106196,  106195
    2346,  106110,  106111,  106138,  106137,  106167,  106168,  106195,  106194
    2347,  106109,  106110,  106137,  106136,  106166,  106167,  106194,  106193
    2348,  106108,  106109,  106136,  106126,  106165,  106166,  106193,  106183
    2349,  106123,  106124,  106127,  106135,  106180,  106181,  106184,  106192
    2350,  106122,  106123,  106135,  106134,  106179,  106180,  106192,  106191
    2351,  106121,  106122,  106134,  106133,  106178,  106179,  106191,  106190
    2352,  106120,  106121,  106133,  106132,  106177,  106178,  106190,  106189
    2353,  106119,  106120,  106132,  106131,  106176,  106177,  106189,  106188
    2354,  106118,  106119,  106131,  106130,  106175,  106176,  106188,  106187
    2355,  106117,  106118,  106130,  106129,  106174,  106175,  106187,  106186
    2356,  106116,  106117,  106129,  106115,  106173,  106174,  106186,  106172
    2357,  105910,  105911,  106101,  106128,  105914,  105915,  106158,  106185
    2358,  105909,  105910,  106128,  106127,  105913,  105914,  106185,  106184
    2359,  105908,  105909,  106127,  106124,  105912,  105913,  106184,  106181
    2360,  105963,  105966,  106108,  106126,  105962,  105965,  106165,  106183
    2361,  105960,  105963,  106126,  106125,  105959,  105962,  106183,  106182
    2362,  105957,  105960,  106125,  106107,  105956,  105959,  106182,  106164
    2363,  106018,  105902,  105908,  106124,  106019,  105903,  105912,  106181
    2364,  106021,  106018,  106124,  106123,  106022,  106019,  106181,  106180
    2365,  106024,  106021,  106123,  106122,  106025,  106022,  106180,  106179
    2366,  106027,  106024,  106122,  106121,  106028,  106025,  106179,  106178
    2367,  106030,  106027,  106121,  106120,  106031,  106028,  106178,  106177
    2368,  106033,  106030,  106120,  106119,  106034,  106031,  106177,  106176
    2369,  106036,  106033,  106119,  106118,  106037,  106034,  106176,  106175
    2370,  106039,  106036,  106118,  106117,  106040,  106037,  106175,  106174
    2371,  106042,  106039,  106117,  106116,  106043,  106040,  106174,  106173
    2372,  106006,  105970,  106042,  106116,  106005,  105969,  106043,  106173
    2373,  106003,  106006,  106116,  106115,  106002,  106005,  106173,  106172
    2374,  106000,  106003,  106115,  106114,  105999,  106002,  106172,  106171
    2375,  105997,  106000,  106114,  106113,  105996,  105999,  106171,  106170
    2376,  105994,  105997,  106113,  106112,  105993,  105996,  106170,  106169
    2377,  105991,  105994,  106112,  106111,  105990,  105993,  106169,  106168
    2378,  105988,  105991,  106111,  106110,  105987,  105990,  106168,  106167
    2379,  105985,  105988,  106110,  106109,  105984,  105987,  106167,  106166
    2380,  105982,  105985,  106109,  106108,  105981,  105984,  106166,  106165
    2381,  105950,  105982,  106108,  105966,  105951,  105981,  106165,  105965
    2382,  105946,  105918,  105957,  106107,  105945,  105917,  105956,  106164
    2383,  105943,  105946,  106107,  106106,  105942,  105945,  106164,  106163
    2384,  105940,  105943,  106106,  106105,  105939,  105942,  106163,  106162
    2385,  105937,  105940,  106105,  106104,  105936,  105939,  106162,  106161
    2386,  105934,  105937,  106104,  106103,  105933,  105936,  106161,  106160
    2387,  105931,  105934,  106103,  106102,  105930,  105933,  106160,  106159
    2388,  105928,  105931,  106102,  106101,  105927,  105930,  106159,  106158
    2389,  105894,  105928,  106101,  105911,  105893,  105927,  106158,  105915
    2390,  106203,  106200,  106211,  106212,  106260,  106257,  106268,  106269
    2391,  106212,  106213,  106204,  106203,  106269,  106270,  106261,  106260
    2392,  106205,  106204,  106213,  106214,  106262,  106261,  106270,  106271
    2393,  106207,  106205,  106214,  106206,  106264,  106262,  106271,  106263
    2394,  106202,  106205,  106207,  106208,  106259,  106262,  106264,  106265
    2395,  106197,  106198,  106206,  106214,  106254,  106255,  106263,  106271
    2396,  106196,  106197,  106214,  106213,  106253,  106254,  106271,  106270
    2397,  106195,  106196,  106213,  106212,  106252,  106253,  106270,  106269
    2398,  106194,  106195,  106212,  106211,  106251,  106252,  106269,  106268
    2399,  106193,  106194,  106211,  106200,  106250,  106251,  106268,  106257
    2400,  106201,  106202,  106208,  106209,  106258,  106259,  106265,  106266
    2401,  106199,  106201,  106209,  106210,  106256,  106258,  106266,  106267
    2402,  106191,  106192,  106199,  106210,  106248,  106249,  106256,  106267
    2403,  106190,  106191,  106210,  106209,  106247,  106248,  106267,  106266
    2404,  106189,  106190,  106209,  106208,  106246,  106247,  106266,  106265
    2405,  106188,  106189,  106208,  106207,  106245,  106246,  106265,  106264
    2406,  106187,  106188,  106207,  106206,  106244,  106245,  106264,  106263
    2407,  106186,  106187,  106206,  106198,  106243,  106244,  106263,  106255
    2408,  106202,  106161,  106204,  106205,  106259,  106218,  106261,  106262
    2409,  106161,  106162,  106203,  106204,  106218,  106219,  106260,  106261
    2410,  106162,  106163,  106200,  106203,  106219,  106220,  106257,  106260
    2411,  106160,  106161,  106202,  106201,  106217,  106218,  106259,  106258
    2412,  106159,  106160,  106201,  106199,  106216,  106217,  106258,  106256
    2413,  106182,  106183,  106193,  106200,  106239,  106240,  106250,  106257
    2414,  106164,  106182,  106200,  106163,  106221,  106239,  106257,  106220
    2415,  106185,  106158,  106159,  106199,  106242,  106215,  106216,  106256
    2416,  106184,  106185,  106199,  106192,  106241,  106242,  106256,  106249
    2417,  106171,  106172,  106186,  106198,  106228,  106229,  106243,  106255
    2418,  106170,  106171,  106198,  106197,  106227,  106228,  106255,  106254
    2419,  106169,  106170,  106197,  106196,  106226,  106227,  106254,  106253
    2420,  106168,  106169,  106196,  106195,  106225,  106226,  106253,  106252
    2421,  106167,  106168,  106195,  106194,  106224,  106225,  106252,  106251
    2422,  106166,  106167,  106194,  106193,  106223,  106224,  106251,  106250
    2423,  106165,  106166,  106193,  106183,  106222,  106223,  106250,  106240
    2424,  106180,  106181,  106184,  106192,  106237,  106238,  106241,  106249
    2425,  106179,  106180,  106192,  106191,  106236,  106237,  106249,  106248
    2426,  106178,  106179,  106191,  106190,  106235,  106236,  106248,  106247
    2427,  106177,  106178,  106190,  106189,  106234,  106235,  106247,  106246
    2428,  106176,  106177,  106189,  106188,  106233,  106234,  106246,  106245
    2429,  106175,  106176,  106188,  106187,  106232,  106233,  106245,  106244
    2430,  106174,  106175,  106187,  106186,  106231,  106232,  106244,  106243
    2431,  106173,  106174,  106186,  106172,  106230,  106231,  106243,  106229
    2432,  105914,  105915,  106158,  106185,  105899,  105900,  106215,  106242
    2433,  105913,  105914,  106185,  106184,  105898,  105899,  106242,  106241
    2434,  105912,  105913,  106184,  106181,  105897,  105898,  106241,  106238
    2435,  105962,  105965,  106165,  106183,  105953,  105952,  106222,  106240
    2436,  105959,  105962,  106183,  106182,  105954,  105953,  106240,  106239
    2437,  105956,  105959,  106182,  106164,  105955,  105954,  106239,  106221
    2438,  106019,  105903,  105912,  106181,  106008,  105896,  105897,  106238
    2439,  106022,  106019,  106181,  106180,  106009,  106008,  106238,  106237
    2440,  106025,  106022,  106180,  106179,  106010,  106009,  106237,  106236
    2441,  106028,  106025,  106179,  106178,  106011,  106010,  106236,  106235
    2442,  106031,  106028,  106178,  106177,  106012,  106011,  106235,  106234
    2443,  106034,  106031,  106177,  106176,  106013,  106012,  106234,  106233
    2444,  106037,  106034,  106176,  106175,  106014,  106013,  106233,  106232
    2445,  106040,  106037,  106175,  106174,  106015,  106014,  106232,  106231
    2446,  106043,  106040,  106174,  106173,  106016,  106015,  106231,  106230
    2447,  106005,  105969,  106043,  106173,  105980,  105968,  106016,  106230
    2448,  106002,  106005,  106173,  106172,  105979,  105980,  106230,  106229
    2449,  105999,  106002,  106172,  106171,  105978,  105979,  106229,  106228
    2450,  105996,  105999,  106171,  106170,  105977,  105978,  106228,  106227
    2451,  105993,  105996,  106170,  106169,  105976,  105977,  106227,  106226
    2452,  105990,  105993,  106169,  106168,  105975,  105976,  106226,  106225
    2453,  105987,  105990,  106168,  106167,  105974,  105975,  106225,  106224
    2454,  105984,  105987,  106167,  106166,  105973,  105974,  106224,  106223
    2455,  105981,  105984,  106166,  106165,  105972,  105973,  106223,  106222
    2456,  105951,  105981,  106165,  105965,  105948,  105972,  106222,  105952
    2457,  105945,  105917,  105956,  106164,  105926,  105916,  105955,  106221
    2458,  105942,  105945,  106164,  106163,  105925,  105926,  106221,  106220
    2459,  105939,  105942,  106163,  106162,  105924,  105925,  106220,  106219
    2460,  105936,  105939,  106162,  106161,  105923,  105924,  106219,  106218
    2461,  105933,  105936,  106161,  106160,  105922,  105923,  106218,  106217
    2462,  105930,  105933,  106160,  106159,  105921,  105922,  106217,  106216
    2463,  105927,  105930,  106159,  106158,  105920,  105921,  106216,  106215
    2464,  105893,  105927,  106158,  105915,  105892,  105920,  106215,  105900
    2465,  106272,  116563,  116578,  106291,  106278,  116566,  116625,  106293
    2466,  116563,  116562,  116577,  116578,  116566,  116565,  116626,  116625
    2467,  116562,  116561,  116576,  116577,  116565,  116564,  116618,  116626
    2468,  106291,  116578,  116580,  106290,  106293,  116625,  116627,  106294
    2469,  116578,  116577,  116579,  116580,  116625,  116626,  116628,  116627
    2470,  116577,  116576,  116575,  116579,  116626,  116618,  116619,  116628
    2471,  106290,  116580,  116582,  106289,  106294,  116627,  116629,  106295
    2472,  116580,  116579,  116581,  116582,  116627,  116628,  116630,  116629
    2473,  116579,  116575,  116574,  116581,  116628,  116619,  116620,  116630
    2474,  106289,  116582,  116584,  106288,  106295,  116629,  116631,  106296
    2475,  116582,  116581,  116583,  116584,  116629,  116630,  116632,  116631
    2476,  116581,  116574,  116573,  116583,  116630,  116620,  116621,  116632
    2477,  106288,  116584,  116586,  106287,  106296,  116631,  116633,  106297
    2478,  116584,  116583,  116585,  116586,  116631,  116632,  116634,  116633
    2479,  116583,  116573,  116572,  116585,  116632,  116621,  116622,  116634
    2480,  106287,  116586,  116588,  106286,  106297,  116633,  116635,  106298
    2481,  116586,  116585,  116587,  116588,  116633,  116634,  116636,  116635
    2482,  116585,  116572,  116571,  116587,  116634,  116622,  116623,  116636
    2483,  106286,  116588,  116590,  106285,  106298,  116635,  116637,  106299
    2484,  116588,  116587,  116589,  116590,  116635,  116636,  116638,  116637
    2485,  116587,  116571,  116570,  116589,  116636,  116623,  116624,  116638
    2486,  106285,  116590,  116569,  106284,  106299,  116637,  116595,  106292
    2487,  116590,  116589,  116568,  116569,  116637,  116638,  116596,  116595
    2488,  116589,  116570,  116567,  116568,  116638,  116624,  116594,  116596
    2489,  106278,  116566,  116625,  106293,  105798,  116559,  116604,  105804
    2490,  116566,  116565,  116626,  116625,  116559,  116560,  116605,  116604
    2491,  116565,  116564,  116618,  116626,  116560,  116558,  116603,  116605
    2492,  106293,  116625,  116627,  106294,  105804,  116604,  116606,  105805
    2493,  116625,  116626,  116628,  116627,  116604,  116605,  116607,  116606
    2494,  116626,  116618,  116619,  116628,  116605,  116603,  116602,  116607
    2495,  106294,  116627,  116629,  106295,  105805,  116606,  116608,  105806
    2496,  116627,  116628,  116630,  116629,  116606,  116607,  116609,  116608
    2497,  116628,  116619,  116620,  116630,  116607,  116602,  116601,  116609
    2498,  106295,  116629,  116631,  106296,  105806,  116608,  116610,  105807
    2499,  116629,  116630,  116632,  116631,  116608,  116609,  116611,  116610
    2500,  116630,  116620,  116621,  116632,  116609,  116601,  116600,  116611
    2501,  106296,  116631,  116633,  106297,  105807,  116610,  116612,  105808
    2502,  116631,  116632,  116634,  116633,  116610,  116611,  116613,  116612
    2503,  116632,  116621,  116622,  116634,  116611,  116600,  116599,  116613
    2504,  106297,  116633,  116635,  106298,  105808,  116612,  116614,  105809
    2505,  116633,  116634,  116636,  116635,  116612,  116613,  116615,  116614
    2506,  116634,  116622,  116623,  116636,  116613,  116599,  116598,  116615
    2507,  106298,  116635,  116637,  106299,  105809,  116614,  116616,  105810
    2508,  116635,  116636,  116638,  116637,  116614,  116615,  116617,  116616
    2509,  116636,  116623,  116624,  116638,  116615,  116598,  116597,  116617
    2510,  106299,  116637,  116595,  106292,  105810,  116616,  116592,  105803
    2511,  116637,  116638,  116596,  116595,  116616,  116617,  116593,  116592
    2512,  116638,  116624,  116594,  116596,  116617,  116597,  116591,  116593
    2513,  116639,  116663,  116684,  116642,  116641,  116671,  116705,  116645
    2514,  116663,  116664,  116687,  116684,  116671,  116673,  116706,  116705
    2515,  116664,  116665,  116690,  116687,  116673,  116675,  116707,  116706
    2516,  116665,  116666,  116693,  116690,  116675,  116677,  116708,  116707
    2517,  116666,  116667,  116696,  116693,  116677,  116679,  116709,  116708
    2518,  116667,  116668,  116699,  116696,  116679,  116681,  116710,  116709
    2519,  116668,  116669,  116702,  116699,  116681,  116683,  116711,  116710
    2520,  116669,  116651,  116654,  116702,  116683,  116653,  116662,  116711
    2521,  116642,  116684,  116685,  116643,  116645,  116705,  116712,  116647
    2522,  116684,  116687,  116688,  116685,  116705,  116706,  116713,  116712
    2523,  116687,  116690,  116691,  116688,  116706,  116707,  116714,  116713
    2524,  116690,  116693,  116694,  116691,  116707,  116708,  116715,  116714
    2525,  116693,  116696,  116697,  116694,  116708,  116709,  116716,  116715
    2526,  116696,  116699,  116700,  116697,  116709,  116710,  116717,  116716
    2527,  116699,  116702,  116703,  116700,  116710,  116711,  116718,  116717
    2528,  116702,  116654,  116655,  116703,  116711,  116662,  116661,  116718
    2529,  116643,  116685,  116686,  116644,  116647,  116712,  116719,  116649
    2530,  116685,  116688,  116689,  116686,  116712,  116713,  116720,  116719
    2531,  116688,  116691,  116692,  116689,  116713,  116714,  116721,  116720
    2532,  116691,  116694,  116695,  116692,  116714,  116715,  116722,  116721
    2533,  116694,  116697,  116698,  116695,  116715,  116716,  116723,  116722
    2534,  116697,  116700,  116701,  116698,  116716,  116717,  116724,  116723
    2535,  116700,  116703,  116704,  116701,  116717,  116718,  116725,  116724
    2536,  116703,  116655,  116656,  116704,  116718,  116661,  116660,  116725
    2537,  116644,  116686,  116603,  116558,  116649,  116719,  116605,  116560
    2538,  116686,  116689,  116602,  116603,  116719,  116720,  116607,  116605
    2539,  116689,  116692,  116601,  116602,  116720,  116721,  116609,  116607
    2540,  116692,  116695,  116600,  116601,  116721,  116722,  116611,  116609
    2541,  116695,  116698,  116599,  116600,  116722,  116723,  116613,  116611
    2542,  116698,  116701,  116598,  116599,  116723,  116724,  116615,  116613
    2543,  116701,  116704,  116597,  116598,  116724,  116725,  116617,  116615
    2544,  116704,  116656,  116591,  116597,  116725,  116660,  116593,  116617
    2545,  116641,  116671,  116705,  116645,  116640,  116670,  116726,  116646
    2546,  116671,  116673,  116706,  116705,  116670,  116672,  116727,  116726
    2547,  116673,  116675,  116707,  116706,  116672,  116674,  116728,  116727
    2548,  116675,  116677,  116708,  116707,  116674,  116676,  116729,  116728
    2549,  116677,  116679,  116709,  116708,  116676,  116678,  116730,  116729
    2550,  116679,  116681,  116710,  116709,  116678,  116680,  116731,  116730
    2551,  116681,  116683,  116711,  116710,  116680,  116682,  116732,  116731
    2552,  116683,  116653,  116662,  116711,  116682,  116652,  116659,  116732
    2553,  116645,  116705,  116712,  116647,  116646,  116726,  116733,  116648
    2554,  116705,  116706,  116713,  116712,  116726,  116727,  116734,  116733
    2555,  116706,  116707,  116714,  116713,  116727,  116728,  116735,  116734
    2556,  116707,  116708,  116715,  116714,  116728,  116729,  116736,  116735
    2557,  116708,  116709,  116716,  116715,  116729,  116730,  116737,  116736
    2558,  116709,  116710,  116717,  116716,  116730,  116731,  116738,  116737
    2559,  116710,  116711,  116718,  116717,  116731,  116732,  116739,  116738
    2560,  116711,  116662,  116661,  116718,  116732,  116659,  116658,  116739
    2561,  116647,  116712,  116719,  116649,  116648,  116733,  116740,  116650
    2562,  116712,  116713,  116720,  116719,  116733,  116734,  116741,  116740
    2563,  116713,  116714,  116721,  116720,  116734,  116735,  116742,  116741
    2564,  116714,  116715,  116722,  116721,  116735,  116736,  116743,  116742
    2565,  116715,  116716,  116723,  116722,  116736,  116737,  116744,  116743
    2566,  116716,  116717,  116724,  116723,  116737,  116738,  116745,  116744
    2567,  116717,  116718,  116725,  116724,  116738,  116739,  116746,  116745
    2568,  116718,  116661,  116660,  116725,  116739,  116658,  116657,  116746
    2569,  116649,  116719,  116605,  116560,  116650,  116740,  116604,  116559
    2570,  116719,  116720,  116607,  116605,  116740,  116741,  116606,  116604
    2571,  116720,  116721,  116609,  116607,  116741,  116742,  116608,  116606
    2572,  116721,  116722,  116611,  116609,  116742,  116743,  116610,  116608
    2573,  116722,  116723,  116613,  116611,  116743,  116744,  116612,  116610
    2574,  116723,  116724,  116615,  116613,  116744,  116745,  116614,  116612
    2575,  116724,  116725,  116617,  116615,  116745,  116746,  116616,  116614
    2576,  116725,  116660,  116593,  116617,  116746,  116657,  116592,  116616
    2577,  116640,  116670,  116726,  116646,  105892,  105920,  105927,  105893
    2578,  116670,  116672,  116727,  116726,  105920,  105921,  105930,  105927
    2579,  116672,  116674,  116728,  116727,  105921,  105922,  105933,  105930
    2580,  116674,  116676,  116729,  116728,  105922,  105923,  105936,  105933
    2581,  116676,  116678,  116730,  116729,  105923,  105924,  105939,  105936
    2582,  116678,  116680,  116731,  116730,  105924,  105925,  105942,  105939
    2583,  116680,  116682,  116732,  116731,  105925,  105926,  105945,  105942
    2584,  116682,  116652,  116659,  116732,  105926,  105916,  105917,  105945
    2585,  116646,  116726,  116733,  116648,  105893,  105927,  105928,  105894
    2586,  116726,  116727,  116734,  116733,  105927,  105930,  105931,  105928
    2587,  116727,  116728,  116735,  116734,  105930,  105933,  105934,  105931
    2588,  116728,  116729,  116736,  116735,  105933,  105936,  105937,  105934
    2589,  116729,  116730,  116737,  116736,  105936,  105939,  105940,  105937
    2590,  116730,  116731,  116738,  116737,  105939,  105942,  105943,  105940
    2591,  116731,  116732,  116739,  116738,  105942,  105945,  105946,  105943
    2592,  116732,  116659,  116658,  116739,  105945,  105917,  105918,  105946
    2593,  116648,  116733,  116740,  116650,  105894,  105928,  105929,  105895
    2594,  116733,  116734,  116741,  116740,  105928,  105931,  105932,  105929
    2595,  116734,  116735,  116742,  116741,  105931,  105934,  105935,  105932
    2596,  116735,  116736,  116743,  116742,  105934,  105937,  105938,  105935
    2597,  116736,  116737,  116744,  116743,  105937,  105940,  105941,  105938
    2598,  116737,  116738,  116745,  116744,  105940,  105943,  105944,  105941
    2599,  116738,  116739,  116746,  116745,  105943,  105946,  105947,  105944
    2600,  116739,  116658,  116657,  116746,  105946,  105918,  105919,  105947
    2601,  116650,  116740,  116604,  116559,  105895,  105929,  105804,  105798
    2602,  116740,  116741,  116606,  116604,  105929,  105932,  105805,  105804
    2603,  116741,  116742,  116608,  116606,  105932,  105935,  105806,  105805
    2604,  116742,  116743,  116610,  116608,  105935,  105938,  105807,  105806
    2605,  116743,  116744,  116612,  116610,  105938,  105941,  105808,  105807
    2606,  116744,  116745,  116614,  116612,  105941,  105944,  105809,  105808
    2607,  116745,  116746,  116616,  116614,  105944,  105947,  105810,  105809
    2608,  116746,  116657,  116592,  116616,  105947,  105919,  105803,  105810
    2609,  113036,  113033,  113044,  113045,  112559,  112556,  112567,  112568
    2610,  113045,  113046,  113037,  113036,  112568,  112569,  112560,  112559
    2611,  113038,  113037,  113046,  113047,  112561,  112560,  112569,  112570
    2612,  113040,  113038,  113047,  113039,  112563,  112561,  112570,  112562
    2613,  113035,  113038,  113040,  113041,  112558,  112561,  112563,  112564
    2614,  113030,  113031,  113039,  113047,  112553,  112554,  112562,  112570
    2615,  113029,  113030,  113047,  113046,  112552,  112553,  112570,  112569
    2616,  113028,  113029,  113046,  113045,  112551,  112552,  112569,  112568
    2617,  113027,  113028,  113045,  113044,  112550,  112551,  112568,  112567
    2618,  113026,  113027,  113044,  113033,  112549,  112550,  112567,  112556
    2619,  113034,  113035,  113041,  113042,  112557,  112558,  112564,  112565
    2620,  113032,  113034,  113042,  113043,  112555,  112557,  112565,  112566
    2621,  113024,  113025,  113032,  113043,  112547,  112548,  112555,  112566
    2622,  113023,  113024,  113043,  113042,  112546,  112547,  112566,  112565
    2623,  113022,  113023,  113042,  113041,  112545,  112546,  112565,  112564
    2624,  113021,  113022,  113041,  113040,  112544,  112545,  112564,  112563
    2625,  113020,  113021,  113040,  113039,  112543,  112544,  112563,  112562
    2626,  113019,  113020,  113039,  113031,  112542,  112543,  112562,  112554
    2627,  113035,  112994,  113037,  113038,  112558,  112517,  112560,  112561
    2628,  112994,  112995,  113036,  113037,  112517,  112518,  112559,  112560
    2629,  112995,  112996,  113033,  113036,  112518,  112519,  112556,  112559
    2630,  112993,  112994,  113035,  113034,  112516,  112517,  112558,  112557
    2631,  112992,  112993,  113034,  113032,  112515,  112516,  112557,  112555
    2632,  113015,  113016,  113026,  113033,  112538,  112539,  112549,  112556
    2633,  112997,  113015,  113033,  112996,  112520,  112538,  112556,  112519
    2634,  113018,  112991,  112992,  113032,  112541,  112514,  112515,  112555
    2635,  113017,  113018,  113032,  113025,  112540,  112541,  112555,  112548
    2636,  113004,  113005,  113019,  113031,  112527,  112528,  112542,  112554
    2637,  113003,  113004,  113031,  113030,  112526,  112527,  112554,  112553
    2638,  113002,  113003,  113030,  113029,  112525,  112526,  112553,  112552
    2639,  113001,  113002,  113029,  113028,  112524,  112525,  112552,  112551
    2640,  113000,  113001,  113028,  113027,  112523,  112524,  112551,  112550
    2641,  112999,  113000,  113027,  113026,  112522,  112523,  112550,  112549
    2642,  112998,  112999,  113026,  113016,  112521,  112522,  112549,  112539
    2643,  113013,  113014,  113017,  113025,  112536,  112537,  112540,  112548
    2644,  113012,  113013,  113025,  113024,  112535,  112536,  112548,  112547
    2645,  113011,  113012,  113024,  113023,  112534,  112535,  112547,  112546
    2646,  113010,  113011,  113023,  113022,  112533,  112534,  112546,  112545
    2647,  113009,  113010,  113022,  113021,  112532,  112533,  112545,  112544
    2648,  113008,  113009,  113021,  113020,  112531,  112532,  112544,  112543
    2649,  113007,  113008,  113020,  113019,  112530,  112531,  112543,  112542
    2650,  113006,  113007,  113019,  113005,  112529,  112530,  112542,  112528
    2651,  112956,  112955,  112991,  113018,  112504,  112503,  112514,  112541
    2652,  112957,  112956,  113018,  113017,  112505,  112504,  112541,  112540
    2653,  112958,  112957,  113017,  113014,  112506,  112505,  112540,  112537
    2654,  106281,  106280,  112998,  113016,  105800,  105799,  112521,  112539
    2655,  106282,  106281,  113016,  113015,  105801,  105800,  112539,  112538
    2656,  106283,  106282,  113015,  112997,  105802,  105801,  112538,  112520
    2657,  112982,  112950,  112958,  113014,  112493,  112492,  112506,  112537
    2658,  112983,  112982,  113014,  113013,  112494,  112493,  112537,  112536
    2659,  112984,  112983,  113013,  113012,  112495,  112494,  112536,  112535
    2660,  112985,  112984,  113012,  113011,  112496,  112495,  112535,  112534
    2661,  112986,  112985,  113011,  113010,  112497,  112496,  112534,  112533
    2662,  112987,  112986,  113010,  113009,  112498,  112497,  112533,  112532
    2663,  112988,  112987,  113009,  113008,  112499,  112498,  112532,  112531
    2664,  112989,  112988,  113008,  113007,  112500,  112499,  112531,  112530
    2665,  112990,  112989,  113007,  113006,  112501,  112500,  112530,  112529
    2666,  112946,  112937,  112990,  113006,  112483,  112482,  112501,  112529
    2667,  112945,  112946,  113006,  113005,  112484,  112483,  112529,  112528
    2668,  112944,  112945,  113005,  113004,  112485,  112484,  112528,  112527
    2669,  112943,  112944,  113004,  113003,  112486,  112485,  112527,  112526
    2670,  112942,  112943,  113003,  113002,  112487,  112486,  112526,  112525
    2671,  112941,  112942,  113002,  113001,  112488,  112487,  112525,  112524
    2672,  112940,  112941,  113001,  113000,  112489,  112488,  112524,  112523
    2673,  112939,  112940,  113000,  112999,  112490,  112489,  112523,  112522
    2674,  112938,  112939,  112999,  112998,  112491,  112490,  112522,  112521
    2675,  106279,  112938,  112998,  106280,  105797,  112491,  112521,  105799
    2676,  112966,  106278,  106283,  112997,  112513,  105798,  105802,  112520
    2677,  112967,  112966,  112997,  112996,  112512,  112513,  112520,  112519
    2678,  112968,  112967,  112996,  112995,  112511,  112512,  112519,  112518
    2679,  112969,  112968,  112995,  112994,  112510,  112511,  112518,  112517
    2680,  112970,  112969,  112994,  112993,  112509,  112510,  112517,  112516
    2681,  112971,  112970,  112993,  112992,  112508,  112509,  112516,  112515
    2682,  112972,  112971,  112992,  112991,  112507,  112508,  112515,  112514
    2683,  112948,  112972,  112991,  112955,  112502,  112507,  112514,  112503
    2684,  113093,  113090,  113101,  113102,  113036,  113033,  113044,  113045
    2685,  113102,  113103,  113094,  113093,  113045,  113046,  113037,  113036
    2686,  113095,  113094,  113103,  113104,  113038,  113037,  113046,  113047
    2687,  113097,  113095,  113104,  113096,  113040,  113038,  113047,  113039
    2688,  113092,  113095,  113097,  113098,  113035,  113038,  113040,  113041
    2689,  113087,  113088,  113096,  113104,  113030,  113031,  113039,  113047
    2690,  113086,  113087,  113104,  113103,  113029,  113030,  113047,  113046
    2691,  113085,  113086,  113103,  113102,  113028,  113029,  113046,  113045
    2692,  113084,  113085,  113102,  113101,  113027,  113028,  113045,  113044
    2693,  113083,  113084,  113101,  113090,  113026,  113027,  113044,  113033
    2694,  113091,  113092,  113098,  113099,  113034,  113035,  113041,  113042
    2695,  113089,  113091,  113099,  113100,  113032,  113034,  113042,  113043
    2696,  113081,  113082,  113089,  113100,  113024,  113025,  113032,  113043
    2697,  113080,  113081,  113100,  113099,  113023,  113024,  113043,  113042
    2698,  113079,  113080,  113099,  113098,  113022,  113023,  113042,  113041
    2699,  113078,  113079,  113098,  113097,  113021,  113022,  113041,  113040
    2700,  113077,  113078,  113097,  113096,  113020,  113021,  113040,  113039
    2701,  113076,  113077,  113096,  113088,  113019,  113020,  113039,  113031
    2702,  113092,  113051,  113094,  113095,  113035,  112994,  113037,  113038
    2703,  113051,  113052,  113093,  113094,  112994,  112995,  113036,  113037
    2704,  113052,  113053,  113090,  113093,  112995,  112996,  113033,  113036
    2705,  113050,  113051,  113092,  113091,  112993,  112994,  113035,  113034
    2706,  113049,  113050,  113091,  113089,  112992,  112993,  113034,  113032
    2707,  113072,  113073,  113083,  113090,  113015,  113016,  113026,  113033
    2708,  113054,  113072,  113090,  113053,  112997,  113015,  113033,  112996
    2709,  113075,  113048,  113049,  113089,  113018,  112991,  112992,  113032
    2710,  113074,  113075,  113089,  113082,  113017,  113018,  113032,  113025
    2711,  113061,  113062,  113076,  113088,  113004,  113005,  113019,  113031
    2712,  113060,  113061,  113088,  113087,  113003,  113004,  113031,  113030
    2713,  113059,  113060,  113087,  113086,  113002,  113003,  113030,  113029
    2714,  113058,  113059,  113086,  113085,  113001,  113002,  113029,  113028
    2715,  113057,  113058,  113085,  113084,  113000,  113001,  113028,  113027
    2716,  113056,  113057,  113084,  113083,  112999,  113000,  113027,  113026
    2717,  113055,  113056,  113083,  113073,  112998,  112999,  113026,  113016
    2718,  113070,  113071,  113074,  113082,  113013,  113014,  113017,  113025
    2719,  113069,  113070,  113082,  113081,  113012,  113013,  113025,  113024
    2720,  113068,  113069,  113081,  113080,  113011,  113012,  113024,  113023
    2721,  113067,  113068,  113080,  113079,  113010,  113011,  113023,  113022
    2722,  113066,  113067,  113079,  113078,  113009,  113010,  113022,  113021
    2723,  113065,  113066,  113078,  113077,  113008,  113009,  113021,  113020
    2724,  113064,  113065,  113077,  113076,  113007,  113008,  113020,  113019
    2725,  113063,  113064,  113076,  113062,  113006,  113007,  113019,  113005
    2726,  112953,  112954,  113048,  113075,  112956,  112955,  112991,  113018
    2727,  112952,  112953,  113075,  113074,  112957,  112956,  113018,  113017
    2728,  112951,  112952,  113074,  113071,  112958,  112957,  113017,  113014
    2729,  106276,  106277,  113055,  113073,  106281,  106280,  112998,  113016
    2730,  106275,  106276,  113073,  113072,  106282,  106281,  113016,  113015
    2731,  106274,  106275,  113072,  113054,  106283,  106282,  113015,  112997
    2732,  112973,  112949,  112951,  113071,  112982,  112950,  112958,  113014
    2733,  112974,  112973,  113071,  113070,  112983,  112982,  113014,  113013
    2734,  112975,  112974,  113070,  113069,  112984,  112983,  113013,  113012
    2735,  112976,  112975,  113069,  113068,  112985,  112984,  113012,  113011
    2736,  112977,  112976,  113068,  113067,  112986,  112985,  113011,  113010
    2737,  112978,  112977,  113067,  113066,  112987,  112986,  113010,  113009
    2738,  112979,  112978,  113066,  113065,  112988,  112987,  113009,  113008
    2739,  112980,  112979,  113065,  113064,  112989,  112988,  113008,  113007
    2740,  112981,  112980,  113064,  113063,  112990,  112989,  113007,  113006
    2741,  112936,  112927,  112981,  113063,  112946,  112937,  112990,  113006
    2742,  112935,  112936,  113063,  113062,  112945,  112946,  113006,  113005
    2743,  112934,  112935,  113062,  113061,  112944,  112945,  113005,  113004
    2744,  112933,  112934,  113061,  113060,  112943,  112944,  113004,  113003
    2745,  112932,  112933,  113060,  113059,  112942,  112943,  113003,  113002
    2746,  112931,  112932,  113059,  113058,  112941,  112942,  113002,  113001
    2747,  112930,  112931,  113058,  113057,  112940,  112941,  113001,  113000
    2748,  112929,  112930,  113057,  113056,  112939,  112940,  113000,  112999
    2749,  112928,  112929,  113056,  113055,  112938,  112939,  112999,  112998
    2750,  106273,  112928,  113055,  106277,  106279,  112938,  112998,  106280
    2751,  112959,  106272,  106274,  113054,  112966,  106278,  106283,  112997
    2752,  112960,  112959,  113054,  113053,  112967,  112966,  112997,  112996
    2753,  112961,  112960,  113053,  113052,  112968,  112967,  112996,  112995
    2754,  112962,  112961,  113052,  113051,  112969,  112968,  112995,  112994
    2755,  112963,  112962,  113051,  113050,  112970,  112969,  112994,  112993
    2756,  112964,  112963,  113050,  113049,  112971,  112970,  112993,  112992
    2757,  112965,  112964,  113049,  113048,  112972,  112971,  112992,  112991
    2758,  112947,  112965,  113048,  112954,  112948,  112972,  112991,  112955
    2759,  112559,  112556,  112567,  112568,  112744,  112741,  112752,  112753
    2760,  112568,  112569,  112560,  112559,  112753,  112754,  112745,  112744
    2761,  112561,  112560,  112569,  112570,  112746,  112745,  112754,  112755
    2762,  112563,  112561,  112570,  112562,  112748,  112746,  112755,  112747
    2763,  112558,  112561,  112563,  112564,  112743,  112746,  112748,  112749
    2764,  112553,  112554,  112562,  112570,  112738,  112739,  112747,  112755
    2765,  112552,  112553,  112570,  112569,  112737,  112738,  112755,  112754
    2766,  112551,  112552,  112569,  112568,  112736,  112737,  112754,  112753
    2767,  112550,  112551,  112568,  112567,  112735,  112736,  112753,  112752
    2768,  112549,  112550,  112567,  112556,  112734,  112735,  112752,  112741
    2769,  112557,  112558,  112564,  112565,  112742,  112743,  112749,  112750
    2770,  112555,  112557,  112565,  112566,  112740,  112742,  112750,  112751
    2771,  112547,  112548,  112555,  112566,  112732,  112733,  112740,  112751
    2772,  112546,  112547,  112566,  112565,  112731,  112732,  112751,  112750
    2773,  112545,  112546,  112565,  112564,  112730,  112731,  112750,  112749
    2774,  112544,  112545,  112564,  112563,  112729,  112730,  112749,  112748
    2775,  112543,  112544,  112563,  112562,  112728,  112729,  112748,  112747
    2776,  112542,  112543,  112562,  112554,  112727,  112728,  112747,  112739
    2777,  112558,  112517,  112560,  112561,  112743,  112702,  112745,  112746
    2778,  112517,  112518,  112559,  112560,  112702,  112703,  112744,  112745
    2779,  112518,  112519,  112556,  112559,  112703,  112704,  112741,  112744
    2780,  112516,  112517,  112558,  112557,  112701,  112702,  112743,  112742
    2781,  112515,  112516,  112557,  112555,  112700,  112701,  112742,  112740
    2782,  112538,  112539,  112549,  112556,  112723,  112724,  112734,  112741
    2783,  112520,  112538,  112556,  112519,  112705,  112723,  112741,  112704
    2784,  112541,  112514,  112515,  112555,  112726,  112699,  112700,  112740
    2785,  112540,  112541,  112555,  112548,  112725,  112726,  112740,  112733
    2786,  112527,  112528,  112542,  112554,  112712,  112713,  112727,  112739
    2787,  112526,  112527,  112554,  112553,  112711,  112712,  112739,  112738
    2788,  112525,  112526,  112553,  112552,  112710,  112711,  112738,  112737
    2789,  112524,  112525,  112552,  112551,  112709,  112710,  112737,  112736
    2790,  112523,  112524,  112551,  112550,  112708,  112709,  112736,  112735
    2791,  112522,  112523,  112550,  112549,  112707,  112708,  112735,  112734
    2792,  112521,  112522,  112549,  112539,  112706,  112707,  112734,  112724
    2793,  112536,  112537,  112540,  112548,  112721,  112722,  112725,  112733
    2794,  112535,  112536,  112548,  112547,  112720,  112721,  112733,  112732
    2795,  112534,  112535,  112547,  112546,  112719,  112720,  112732,  112731
    2796,  112533,  112534,  112546,  112545,  112718,  112719,  112731,  112730
    2797,  112532,  112533,  112545,  112544,  112717,  112718,  112730,  112729
    2798,  112531,  112532,  112544,  112543,  112716,  112717,  112729,  112728
    2799,  112530,  112531,  112543,  112542,  112715,  112716,  112728,  112727
    2800,  112529,  112530,  112542,  112528,  112714,  112715,  112727,  112713
    2801,  112504,  112503,  112514,  112541,  112626,  112623,  112699,  112726
    2802,  112505,  112504,  112541,  112540,  112629,  112626,  112726,  112725
    2803,  112506,  112505,  112540,  112537,  112632,  112629,  112725,  112722
    2804,  105800,  105799,  112521,  112539,  105905,  105904,  112706,  112724
    2805,  105801,  105800,  112539,  112538,  105906,  105905,  112724,  112723
    2806,  105802,  105801,  112538,  112520,  105907,  105906,  112723,  112705
    2807,  112493,  112492,  112506,  112537,  112672,  112622,  112632,  112722
    2808,  112494,  112493,  112537,  112536,  112675,  112672,  112722,  112721
    2809,  112495,  112494,  112536,  112535,  112678,  112675,  112721,  112720
    2810,  112496,  112495,  112535,  112534,  112681,  112678,  112720,  112719
    2811,  112497,  112496,  112534,  112533,  112684,  112681,  112719,  112718
    2812,  112498,  112497,  112533,  112532,  112687,  112684,  112718,  112717
    2813,  112499,  112498,  112532,  112531,  112690,  112687,  112717,  112716
    2814,  112500,  112499,  112531,  112530,  112693,  112690,  112716,  112715
    2815,  112501,  112500,  112530,  112529,  112696,  112693,  112715,  112714
    2816,  112483,  112482,  112501,  112529,  112610,  112572,  112696,  112714
    2817,  112484,  112483,  112529,  112528,  112607,  112610,  112714,  112713
    2818,  112485,  112484,  112528,  112527,  112604,  112607,  112713,  112712
    2819,  112486,  112485,  112527,  112526,  112601,  112604,  112712,  112711
    2820,  112487,  112486,  112526,  112525,  112598,  112601,  112711,  112710
    2821,  112488,  112487,  112525,  112524,  112595,  112598,  112710,  112709
    2822,  112489,  112488,  112524,  112523,  112592,  112595,  112709,  112708
    2823,  112490,  112489,  112523,  112522,  112589,  112592,  112708,  112707
    2824,  112491,  112490,  112522,  112521,  112586,  112589,  112707,  112706
    2825,  105797,  112491,  112521,  105799,  105901,  112586,  112706,  105904
    2826,  112513,  105798,  105802,  112520,  112642,  105895,  105907,  112705
    2827,  112512,  112513,  112520,  112519,  112645,  112642,  112705,  112704
    2828,  112511,  112512,  112519,  112518,  112648,  112645,  112704,  112703
    2829,  112510,  112511,  112518,  112517,  112651,  112648,  112703,  112702
    2830,  112509,  112510,  112517,  112516,  112654,  112651,  112702,  112701
    2831,  112508,  112509,  112516,  112515,  112657,  112654,  112701,  112700
    2832,  112507,  112508,  112515,  112514,  112660,  112657,  112700,  112699
    2833,  112502,  112507,  112514,  112503,  112612,  112660,  112699,  112623
    2834,  112744,  112741,  112752,  112753,  112801,  112798,  112809,  112810
    2835,  112753,  112754,  112745,  112744,  112810,  112811,  112802,  112801
    2836,  112746,  112745,  112754,  112755,  112803,  112802,  112811,  112812
    2837,  112748,  112746,  112755,  112747,  112805,  112803,  112812,  112804
    2838,  112743,  112746,  112748,  112749,  112800,  112803,  112805,  112806
    2839,  112738,  112739,  112747,  112755,  112795,  112796,  112804,  112812
    2840,  112737,  112738,  112755,  112754,  112794,  112795,  112812,  112811
    2841,  112736,  112737,  112754,  112753,  112793,  112794,  112811,  112810
    2842,  112735,  112736,  112753,  112752,  112792,  112793,  112810,  112809
    2843,  112734,  112735,  112752,  112741,  112791,  112792,  112809,  112798
    2844,  112742,  112743,  112749,  112750,  112799,  112800,  112806,  112807
    2845,  112740,  112742,  112750,  112751,  112797,  112799,  112807,  112808
    2846,  112732,  112733,  112740,  112751,  112789,  112790,  112797,  112808
    2847,  112731,  112732,  112751,  112750,  112788,  112789,  112808,  112807
    2848,  112730,  112731,  112750,  112749,  112787,  112788,  112807,  112806
    2849,  112729,  112730,  112749,  112748,  112786,  112787,  112806,  112805
    2850,  112728,  112729,  112748,  112747,  112785,  112786,  112805,  112804
    2851,  112727,  112728,  112747,  112739,  112784,  112785,  112804,  112796
    2852,  112743,  112702,  112745,  112746,  112800,  112759,  112802,  112803
    2853,  112702,  112703,  112744,  112745,  112759,  112760,  112801,  112802
    2854,  112703,  112704,  112741,  112744,  112760,  112761,  112798,  112801
    2855,  112701,  112702,  112743,  112742,  112758,  112759,  112800,  112799
    2856,  112700,  112701,  112742,  112740,  112757,  112758,  112799,  112797
    2857,  112723,  112724,  112734,  112741,  112780,  112781,  112791,  112798
    2858,  112705,  112723,  112741,  112704,  112762,  112780,  112798,  112761
    2859,  112726,  112699,  112700,  112740,  112783,  112756,  112757,  112797
    2860,  112725,  112726,  112740,  112733,  112782,  112783,  112797,  112790
    2861,  112712,  112713,  112727,  112739,  112769,  112770,  112784,  112796
    2862,  112711,  112712,  112739,  112738,  112768,  112769,  112796,  112795
    2863,  112710,  112711,  112738,  112737,  112767,  112768,  112795,  112794
    2864,  112709,  112710,  112737,  112736,  112766,  112767,  112794,  112793
    2865,  112708,  112709,  112736,  112735,  112765,  112766,  112793,  112792
    2866,  112707,  112708,  112735,  112734,  112764,  112765,  112792,  112791
    2867,  112706,  112707,  112734,  112724,  112763,  112764,  112791,  112781
    2868,  112721,  112722,  112725,  112733,  112778,  112779,  112782,  112790
    2869,  112720,  112721,  112733,  112732,  112777,  112778,  112790,  112789
    2870,  112719,  112720,  112732,  112731,  112776,  112777,  112789,  112788
    2871,  112718,  112719,  112731,  112730,  112775,  112776,  112788,  112787
    2872,  112717,  112718,  112730,  112729,  112774,  112775,  112787,  112786
    2873,  112716,  112717,  112729,  112728,  112773,  112774,  112786,  112785
    2874,  112715,  112716,  112728,  112727,  112772,  112773,  112785,  112784
    2875,  112714,  112715,  112727,  112713,  112771,  112772,  112784,  112770
    2876,  112626,  112623,  112699,  112726,  112627,  112624,  112756,  112783
    2877,  112629,  112626,  112726,  112725,  112630,  112627,  112783,  112782
    2878,  112632,  112629,  112725,  112722,  112633,  112630,  112782,  112779
    2879,  105905,  105904,  112706,  112724,  105909,  105908,  112763,  112781
    2880,  105906,  105905,  112724,  112723,  105910,  105909,  112781,  112780
    2881,  105907,  105906,  112723,  112705,  105911,  105910,  112780,  112762
    2882,  112672,  112622,  112632,  112722,  112673,  112621,  112633,  112779
    2883,  112675,  112672,  112722,  112721,  112676,  112673,  112779,  112778
    2884,  112678,  112675,  112721,  112720,  112679,  112676,  112778,  112777
    2885,  112681,  112678,  112720,  112719,  112682,  112679,  112777,  112776
    2886,  112684,  112681,  112719,  112718,  112685,  112682,  112776,  112775
    2887,  112687,  112684,  112718,  112717,  112688,  112685,  112775,  112774
    2888,  112690,  112687,  112717,  112716,  112691,  112688,  112774,  112773
    2889,  112693,  112690,  112716,  112715,  112694,  112691,  112773,  112772
    2890,  112696,  112693,  112715,  112714,  112697,  112694,  112772,  112771
    2891,  112610,  112572,  112696,  112714,  112609,  112573,  112697,  112771
    2892,  112607,  112610,  112714,  112713,  112606,  112609,  112771,  112770
    2893,  112604,  112607,  112713,  112712,  112603,  112606,  112770,  112769
    2894,  112601,  112604,  112712,  112711,  112600,  112603,  112769,  112768
    2895,  112598,  112601,  112711,  112710,  112597,  112600,  112768,  112767
    2896,  112595,  112598,  112710,  112709,  112594,  112597,  112767,  112766
    2897,  112592,  112595,  112709,  112708,  112591,  112594,  112766,  112765
    2898,  112589,  112592,  112708,  112707,  112588,  112591,  112765,  112764
    2899,  112586,  112589,  112707,  112706,  112585,  112588,  112764,  112763
    2900,  105901,  112586,  112706,  105904,  105902,  112585,  112763,  105908
    2901,  112642,  105895,  105907,  112705,  112643,  105894,  105911,  112762
    2902,  112645,  112642,  112705,  112704,  112646,  112643,  112762,  112761
    2903,  112648,  112645,  112704,  112703,  112649,  112646,  112761,  112760
    2904,  112651,  112648,  112703,  112702,  112652,  112649,  112760,  112759
    2905,  112654,  112651,  112702,  112701,  112655,  112652,  112759,  112758
    2906,  112657,  112654,  112701,  112700,  112658,  112655,  112758,  112757
    2907,  112660,  112657,  112700,  112699,  112661,  112658,  112757,  112756
    2908,  112612,  112660,  112699,  112623,  112613,  112661,  112756,  112624
    2909,  112801,  112798,  112809,  112810,  112858,  112855,  112866,  112867
    2910,  112810,  112811,  112802,  112801,  112867,  112868,  112859,  112858
    2911,  112803,  112802,  112811,  112812,  112860,  112859,  112868,  112869
    2912,  112805,  112803,  112812,  112804,  112862,  112860,  112869,  112861
    2913,  112800,  112803,  112805,  112806,  112857,  112860,  112862,  112863
    2914,  112795,  112796,  112804,  112812,  112852,  112853,  112861,  112869
    2915,  112794,  112795,  112812,  112811,  112851,  112852,  112869,  112868
    2916,  112793,  112794,  112811,  112810,  112850,  112851,  112868,  112867
    2917,  112792,  112793,  112810,  112809,  112849,  112850,  112867,  112866
    2918,  112791,  112792,  112809,  112798,  112848,  112849,  112866,  112855
    2919,  112799,  112800,  112806,  112807,  112856,  112857,  112863,  112864
    2920,  112797,  112799,  112807,  112808,  112854,  112856,  112864,  112865
    2921,  112789,  112790,  112797,  112808,  112846,  112847,  112854,  112865
    2922,  112788,  112789,  112808,  112807,  112845,  112846,  112865,  112864
    2923,  112787,  112788,  112807,  112806,  112844,  112845,  112864,  112863
    2924,  112786,  112787,  112806,  112805,  112843,  112844,  112863,  112862
    2925,  112785,  112786,  112805,  112804,  112842,  112843,  112862,  112861
    2926,  112784,  112785,  112804,  112796,  112841,  112842,  112861,  112853
    2927,  112800,  112759,  112802,  112803,  112857,  112816,  112859,  112860
    2928,  112759,  112760,  112801,  112802,  112816,  112817,  112858,  112859
    2929,  112760,  112761,  112798,  112801,  112817,  112818,  112855,  112858
    2930,  112758,  112759,  112800,  112799,  112815,  112816,  112857,  112856
    2931,  112757,  112758,  112799,  112797,  112814,  112815,  112856,  112854
    2932,  112780,  112781,  112791,  112798,  112837,  112838,  112848,  112855
    2933,  112762,  112780,  112798,  112761,  112819,  112837,  112855,  112818
    2934,  112783,  112756,  112757,  112797,  112840,  112813,  112814,  112854
    2935,  112782,  112783,  112797,  112790,  112839,  112840,  112854,  112847
    2936,  112769,  112770,  112784,  112796,  112826,  112827,  112841,  112853
    2937,  112768,  112769,  112796,  112795,  112825,  112826,  112853,  112852
    2938,  112767,  112768,  112795,  112794,  112824,  112825,  112852,  112851
    2939,  112766,  112767,  112794,  112793,  112823,  112824,  112851,  112850
    2940,  112765,  112766,  112793,  112792,  112822,  112823,  112850,  112849
    2941,  112764,  112765,  112792,  112791,  112821,  112822,  112849,  112848
    2942,  112763,  112764,  112791,  112781,  112820,  112821,  112848,  112838
    2943,  112778,  112779,  112782,  112790,  112835,  112836,  112839,  112847
    2944,  112777,  112778,  112790,  112789,  112834,  112835,  112847,  112846
    2945,  112776,  112777,  112789,  112788,  112833,  112834,  112846,  112845
    2946,  112775,  112776,  112788,  112787,  112832,  112833,  112845,  112844
    2947,  112774,  112775,  112787,  112786,  112831,  112832,  112844,  112843
    2948,  112773,  112774,  112786,  112785,  112830,  112831,  112843,  112842
    2949,  112772,  112773,  112785,  112784,  112829,  112830,  112842,  112841
    2950,  112771,  112772,  112784,  112770,  112828,  112829,  112841,  112827
    2951,  112627,  112624,  112756,  112783,  112628,  112625,  112813,  112840
    2952,  112630,  112627,  112783,  112782,  112631,  112628,  112840,  112839
    2953,  112633,  112630,  112782,  112779,  112634,  112631,  112839,  112836
    2954,  105909,  105908,  112763,  112781,  105913,  105912,  112820,  112838
    2955,  105910,  105909,  112781,  112780,  105914,  105913,  112838,  112837
    2956,  105911,  105910,  112780,  112762,  105915,  105914,  112837,  112819
    2957,  112673,  112621,  112633,  112779,  112674,  112620,  112634,  112836
    2958,  112676,  112673,  112779,  112778,  112677,  112674,  112836,  112835
    2959,  112679,  112676,  112778,  112777,  112680,  112677,  112835,  112834
    2960,  112682,  112679,  112777,  112776,  112683,  112680,  112834,  112833
    2961,  112685,  112682,  112776,  112775,  112686,  112683,  112833,  112832
    2962,  112688,  112685,  112775,  112774,  112689,  112686,  112832,  112831
    2963,  112691,  112688,  112774,  112773,  112692,  112689,  112831,  112830
    2964,  112694,  112691,  112773,  112772,  112695,  112692,  112830,  112829
    2965,  112697,  112694,  112772,  112771,  112698,  112695,  112829,  112828
    2966,  112609,  112573,  112697,  112771,  112608,  112574,  112698,  112828
    2967,  112606,  112609,  112771,  112770,  112605,  112608,  112828,  112827
    2968,  112603,  112606,  112770,  112769,  112602,  112605,  112827,  112826
    2969,  112600,  112603,  112769,  112768,  112599,  112602,  112826,  112825
    2970,  112597,  112600,  112768,  112767,  112596,  112599,  112825,  112824
    2971,  112594,  112597,  112767,  112766,  112593,  112596,  112824,  112823
    2972,  112591,  112594,  112766,  112765,  112590,  112593,  112823,  112822
    2973,  112588,  112591,  112765,  112764,  112587,  112590,  112822,  112821
    2974,  112585,  112588,  112764,  112763,  112584,  112587,  112821,  112820
    2975,  105902,  112585,  112763,  105908,  105903,  112584,  112820,  105912
    2976,  112643,  105894,  105911,  112762,  112644,  105893,  105915,  112819
    2977,  112646,  112643,  112762,  112761,  112647,  112644,  112819,  112818
    2978,  112649,  112646,  112761,  112760,  112650,  112647,  112818,  112817
    2979,  112652,  112649,  112760,  112759,  112653,  112650,  112817,  112816
    2980,  112655,  112652,  112759,  112758,  112656,  112653,  112816,  112815
    2981,  112658,  112655,  112758,  112757,  112659,  112656,  112815,  112814
    2982,  112661,  112658,  112757,  112756,  112662,  112659,  112814,  112813
    2983,  112613,  112661,  112756,  112624,  112614,  112662,  112813,  112625
    2984,  112858,  112855,  112866,  112867,  112915,  112912,  112923,  112924
    2985,  112867,  112868,  112859,  112858,  112924,  112925,  112916,  112915
    2986,  112860,  112859,  112868,  112869,  112917,  112916,  112925,  112926
    2987,  112862,  112860,  112869,  112861,  112919,  112917,  112926,  112918
    2988,  112857,  112860,  112862,  112863,  112914,  112917,  112919,  112920
    2989,  112852,  112853,  112861,  112869,  112909,  112910,  112918,  112926
    2990,  112851,  112852,  112869,  112868,  112908,  112909,  112926,  112925
    2991,  112850,  112851,  112868,  112867,  112907,  112908,  112925,  112924
    2992,  112849,  112850,  112867,  112866,  112906,  112907,  112924,  112923
    2993,  112848,  112849,  112866,  112855,  112905,  112906,  112923,  112912
    2994,  112856,  112857,  112863,  112864,  112913,  112914,  112920,  112921
    2995,  112854,  112856,  112864,  112865,  112911,  112913,  112921,  112922
    2996,  112846,  112847,  112854,  112865,  112903,  112904,  112911,  112922
    2997,  112845,  112846,  112865,  112864,  112902,  112903,  112922,  112921
    2998,  112844,  112845,  112864,  112863,  112901,  112902,  112921,  112920
    2999,  112843,  112844,  112863,  112862,  112900,  112901,  112920,  112919
    3000,  112842,  112843,  112862,  112861,  112899,  112900,  112919,  112918
    3001,  112841,  112842,  112861,  112853,  112898,  112899,  112918,  112910
    3002,  112857,  112816,  112859,  112860,  112914,  112873,  112916,  112917
    3003,  112816,  112817,  112858,  112859,  112873,  112874,  112915,  112916
    3004,  112817,  112818,  112855,  112858,  112874,  112875,  112912,  112915
    3005,  112815,  112816,  112857,  112856,  112872,  112873,  112914,  112913
    3006,  112814,  112815,  112856,  112854,  112871,  112872,  112913,  112911
    3007,  112837,  112838,  112848,  112855,  112894,  112895,  112905,  112912
    3008,  112819,  112837,  112855,  112818,  112876,  112894,  112912,  112875
    3009,  112840,  112813,  112814,  112854,  112897,  112870,  112871,  112911
    3010,  112839,  112840,  112854,  112847,  112896,  112897,  112911,  112904
    3011,  112826,  112827,  112841,  112853,  112883,  112884,  112898,  112910
    3012,  112825,  112826,  112853,  112852,  112882,  112883,  112910,  112909
    3013,  112824,  112825,  112852,  112851,  112881,  112882,  112909,  112908
    3014,  112823,  112824,  112851,  112850,  112880,  112881,  112908,  112907
    3015,  112822,  112823,  112850,  112849,  112879,  112880,  112907,  112906
    3016,  112821,  112822,  112849,  112848,  112878,  112879,  112906,  112905
    3017,  112820,  112821,  112848,  112838,  112877,  112878,  112905,  112895
    3018,  112835,  112836,  112839,  112847,  112892,  112893,  112896,  112904
    3019,  112834,  112835,  112847,  112846,  112891,  112892,  112904,  112903
    3020,  112833,  112834,  112846,  112845,  112890,  112891,  112903,  112902
    3021,  112832,  112833,  112845,  112844,  112889,  112890,  112902,  112901
    3022,  112831,  112832,  112844,  112843,  112888,  112889,  112901,  112900
    3023,  112830,  112831,  112843,  112842,  112887,  112888,  112900,  112899
    3024,  112829,  112830,  112842,  112841,  112886,  112887,  112899,  112898
    3025,  112828,  112829,  112841,  112827,  112885,  112886,  112898,  112884
    3026,  112628,  112625,  112813,  112840,  112617,  112616,  112870,  112897
    3027,  112631,  112628,  112840,  112839,  112618,  112617,  112897,  112896
    3028,  112634,  112631,  112839,  112836,  112619,  112618,  112896,  112893
    3029,  105913,  105912,  112820,  112838,  105898,  105897,  112877,  112895
    3030,  105914,  105913,  112838,  112837,  105899,  105898,  112895,  112894
    3031,  105915,  105914,  112837,  112819,  105900,  105899,  112894,  112876
    3032,  112674,  112620,  112634,  112836,  112663,  112615,  112619,  112893
    3033,  112677,  112674,  112836,  112835,  112664,  112663,  112893,  112892
    3034,  112680,  112677,  112835,  112834,  112665,  112664,  112892,  112891
    3035,  112683,  112680,  112834,  112833,  112666,  112665,  112891,  112890
    3036,  112686,  112683,  112833,  112832,  112667,  112666,  112890,  112889
    3037,  112689,  112686,  112832,  112831,  112668,  112667,  112889,  112888
    3038,  112692,  112689,  112831,  112830,  112669,  112668,  112888,  112887
    3039,  112695,  112692,  112830,  112829,  112670,  112669,  112887,  112886
    3040,  112698,  112695,  112829,  112828,  112671,  112670,  112886,  112885
    3041,  112608,  112574,  112698,  112828,  112575,  112571,  112671,  112885
    3042,  112605,  112608,  112828,  112827,  112576,  112575,  112885,  112884
    3043,  112602,  112605,  112827,  112826,  112577,  112576,  112884,  112883
    3044,  112599,  112602,  112826,  112825,  112578,  112577,  112883,  112882
    3045,  112596,  112599,  112825,  112824,  112579,  112578,  112882,  112881
    3046,  112593,  112596,  112824,  112823,  112580,  112579,  112881,  112880
    3047,  112590,  112593,  112823,  112822,  112581,  112580,  112880,  112879
    3048,  112587,  112590,  112822,  112821,  112582,  112581,  112879,  112878
    3049,  112584,  112587,  112821,  112820,  112583,  112582,  112878,  112877
    3050,  105903,  112584,  112820,  105912,  105896,  112583,  112877,  105897
    3051,  112644,  105893,  105915,  112819,  112641,  105892,  105900,  112876
    3052,  112647,  112644,  112819,  112818,  112640,  112641,  112876,  112875
    3053,  112650,  112647,  112818,  112817,  112639,  112640,  112875,  112874
    3054,  112653,  112650,  112817,  112816,  112638,  112639,  112874,  112873
    3055,  112656,  112653,  112816,  112815,  112637,  112638,  112873,  112872
    3056,  112659,  112656,  112815,  112814,  112636,  112637,  112872,  112871
    3057,  112662,  112659,  112814,  112813,  112635,  112636,  112871,  112870
    3058,  112614,  112662,  112813,  112625,  112611,  112635,  112870,  112616
    3059,  112502,  119159,  119176,  112948,  112507,  119173,  119192,  112972
    3060,  119159,  119158,  119177,  119176,  119173,  119172,  119193,  119192
    3061,  119158,  119134,  119143,  119177,  119172,  119141,  119157,  119193
    3062,  112948,  119176,  119174,  112947,  112972,  119192,  119190,  112965
    3063,  119176,  119177,  119175,  119174,  119192,  119193,  119191,  119190
    3064,  119177,  119143,  119142,  119175,  119193,  119157,  119150,  119191
    3065,  112507,  119173,  119192,  112972,  112508,  119171,  119194,  112971
    3066,  119173,  119172,  119193,  119192,  119171,  119170,  119195,  119194
    3067,  119172,  119141,  119157,  119193,  119170,  119140,  119156,  119195
    3068,  112972,  119192,  119190,  112965,  112971,  119194,  119188,  112964
    3069,  119192,  119193,  119191,  119190,  119194,  119195,  119189,  119188
    3070,  119193,  119157,  119150,  119191,  119195,  119156,  119149,  119189
    3071,  112508,  119171,  119194,  112971,  112509,  119169,  119196,  112970
    3072,  119171,  119170,  119195,  119194,  119169,  119168,  119197,  119196
    3073,  119170,  119140,  119156,  119195,  119168,  119139,  119155,  119197
    3074,  112971,  119194,  119188,  112964,  112970,  119196,  119186,  112963
    3075,  119194,  119195,  119189,  119188,  119196,  119197,  119187,  119186
    3076,  119195,  119156,  119149,  119189,  119197,  119155,  119148,  119187
    3077,  112509,  119169,  119196,  112970,  112510,  119167,  119198,  112969
    3078,  119169,  119168,  119197,  119196,  119167,  119166,  119199,  119198
    3079,  119168,  119139,  119155,  119197,  119166,  119138,  119154,  119199
    3080,  112970,  119196,  119186,  112963,  112969,  119198,  119184,  112962
    3081,  119196,  119197,  119187,  119186,  119198,  119199,  119185,  119184
    3082,  119197,  119155,  119148,  119187,  119199,  119154,  119147,  119185
    3083,  112510,  119167,  119198,  112969,  112511,  119165,  119200,  112968
    3084,  119167,  119166,  119199,  119198,  119165,  119164,  119201,  119200
    3085,  119166,  119138,  119154,  119199,  119164,  119137,  119153,  119201
    3086,  112969,  119198,  119184,  112962,  112968,  119200,  119182,  112961
    3087,  119198,  119199,  119185,  119184,  119200,  119201,  119183,  119182
    3088,  119199,  119154,  119147,  119185,  119201,  119153,  119146,  119183
    3089,  112511,  119165,  119200,  112968,  112512,  119163,  119202,  112967
    3090,  119165,  119164,  119201,  119200,  119163,  119162,  119203,  119202
    3091,  119164,  119137,  119153,  119201,  119162,  119136,  119152,  119203
    3092,  112968,  119200,  119182,  112961,  112967,  119202,  119180,  112960
    3093,  119200,  119201,  119183,  119182,  119202,  119203,  119181,  119180
    3094,  119201,  119153,  119146,  119183,  119203,  119152,  119145,  119181
    3095,  112512,  119163,  119202,  112967,  112513,  119161,  119204,  112966
    3096,  119163,  119162,  119203,  119202,  119161,  119160,  119205,  119204
    3097,  119162,  119136,  119152,  119203,  119160,  119135,  119151,  119205
    3098,  112967,  119202,  119180,  112960,  112966,  119204,  119178,  112959
    3099,  119202,  119203,  119181,  119180,  119204,  119205,  119179,  119178
    3100,  119203,  119152,  119145,  119181,  119205,  119151,  119144,  119179
    3101,  112513,  119161,  119204,  112966,  105798,  116559,  116566,  106278
    3102,  119161,  119160,  119205,  119204,  116559,  116560,  116565,  116566
    3103,  119160,  119135,  119151,  119205,  116560,  116558,  116564,  116565
    3104,  112966,  119204,  119178,  112959,  106278,  116566,  116563,  106272
    3105,  119204,  119205,  119179,  119178,  116566,  116565,  116562,  116563
    3106,  119205,  119151,  119144,  119179,  116565,  116564,  116561,  116562
    3107,  112611,  119239,  119254,  112614,  112635,  119253,  119260,  112662
    3108,  119239,  119238,  119257,  119254,  119253,  119252,  119261,  119260
    3109,  119238,  119206,  119216,  119257,  119252,  119207,  119237,  119261
    3110,  112614,  119254,  119255,  112613,  112662,  119260,  119262,  112661
    3111,  119254,  119257,  119258,  119255,  119260,  119261,  119263,  119262
    3112,  119257,  119216,  119215,  119258,  119261,  119237,  119236,  119263
    3113,  112613,  119255,  119256,  112612,  112661,  119262,  119264,  112660
    3114,  119255,  119258,  119259,  119256,  119262,  119263,  119265,  119264
    3115,  119258,  119215,  119214,  119259,  119263,  119236,  119235,  119265
    3116,  112612,  119256,  119159,  112502,  112660,  119264,  119173,  112507
    3117,  119256,  119259,  119158,  119159,  119264,  119265,  119172,  119173
    3118,  119259,  119214,  119134,  119158,  119265,  119235,  119141,  119172
    3119,  112635,  119253,  119260,  112662,  112636,  119251,  119266,  112659
    3120,  119253,  119252,  119261,  119260,  119251,  119250,  119267,  119266
    3121,  119252,  119207,  119237,  119261,  119250,  119208,  119234,  119267
    3122,  112662,  119260,  119262,  112661,  112659,  119266,  119268,  112658
    3123,  119260,  119261,  119263,  119262,  119266,  119267,  119269,  119268
    3124,  119261,  119237,  119236,  119263,  119267,  119234,  119233,  119269
    3125,  112661,  119262,  119264,  112660,  112658,  119268,  119270,  112657
    3126,  119262,  119263,  119265,  119264,  119268,  119269,  119271,  119270
    3127,  119263,  119236,  119235,  119265,  119269,  119233,  119232,  119271
    3128,  112660,  119264,  119173,  112507,  112657,  119270,  119171,  112508
    3129,  119264,  119265,  119172,  119173,  119270,  119271,  119170,  119171
    3130,  119265,  119235,  119141,  119172,  119271,  119232,  119140,  119170
    3131,  112636,  119251,  119266,  112659,  112637,  119249,  119272,  112656
    3132,  119251,  119250,  119267,  119266,  119249,  119248,  119273,  119272
    3133,  119250,  119208,  119234,  119267,  119248,  119209,  119231,  119273
    3134,  112659,  119266,  119268,  112658,  112656,  119272,  119274,  112655
    3135,  119266,  119267,  119269,  119268,  119272,  119273,  119275,  119274
    3136,  119267,  119234,  119233,  119269,  119273,  119231,  119230,  119275
    3137,  112658,  119268,  119270,  112657,  112655,  119274,  119276,  112654
    3138,  119268,  119269,  119271,  119270,  119274,  119275,  119277,  119276
    3139,  119269,  119233,  119232,  119271,  119275,  119230,  119229,  119277
    3140,  112657,  119270,  119171,  112508,  112654,  119276,  119169,  112509
    3141,  119270,  119271,  119170,  119171,  119276,  119277,  119168,  119169
    3142,  119271,  119232,  119140,  119170,  119277,  119229,  119139,  119168
    3143,  112637,  119249,  119272,  112656,  112638,  119247,  119278,  112653
    3144,  119249,  119248,  119273,  119272,  119247,  119246,  119279,  119278
    3145,  119248,  119209,  119231,  119273,  119246,  119210,  119228,  119279
    3146,  112656,  119272,  119274,  112655,  112653,  119278,  119280,  112652
    3147,  119272,  119273,  119275,  119274,  119278,  119279,  119281,  119280
    3148,  119273,  119231,  119230,  119275,  119279,  119228,  119227,  119281
    3149,  112655,  119274,  119276,  112654,  112652,  119280,  119282,  112651
    3150,  119274,  119275,  119277,  119276,  119280,  119281,  119283,  119282
    3151,  119275,  119230,  119229,  119277,  119281,  119227,  119226,  119283
    3152,  112654,  119276,  119169,  112509,  112651,  119282,  119167,  112510
    3153,  119276,  119277,  119168,  119169,  119282,  119283,  119166,  119167
    3154,  119277,  119229,  119139,  119168,  119283,  119226,  119138,  119166
    3155,  112638,  119247,  119278,  112653,  112639,  119245,  119284,  112650
    3156,  119247,  119246,  119279,  119278,  119245,  119244,  119285,  119284
    3157,  119246,  119210,  119228,  119279,  119244,  119211,  119225,  119285
    3158,  112653,  119278,  119280,  112652,  112650,  119284,  119286,  112649
    3159,  119278,  119279,  119281,  119280,  119284,  119285,  119287,  119286
    3160,  119279,  119228,  119227,  119281,  119285,  119225,  119224,  119287
    3161,  112652,  119280,  119282,  112651,  112649,  119286,  119288,  112648
    3162,  119280,  119281,  119283,  119282,  119286,  119287,  119289,  119288
    3163,  119281,  119227,  119226,  119283,  119287,  119224,  119223,  119289
    3164,  112651,  119282,  119167,  112510,  112648,  119288,  119165,  112511
    3165,  119282,  119283,  119166,  119167,  119288,  119289,  119164,  119165
    3166,  119283,  119226,  119138,  119166,  119289,  119223,  119137,  119164
    3167,  112639,  119245,  119284,  112650,  112640,  119243,  119290,  112647
    3168,  119245,  119244,  119285,  119284,  119243,  119242,  119291,  119290
    3169,  119244,  119211,  119225,  119285,  119242,  119212,  119222,  119291
    3170,  112650,  119284,  119286,  112649,  112647,  119290,  119292,  112646
    3171,  119284,  119285,  119287,  119286,  119290,  119291,  119293,  119292
    3172,  119285,  119225,  119224,  119287,  119291,  119222,  119221,  119293
    3173,  112649,  119286,  119288,  112648,  112646,  119292,  119294,  112645
    3174,  119286,  119287,  119289,  119288,  119292,  119293,  119295,  119294
    3175,  119287,  119224,  119223,  119289,  119293,  119221,  119220,  119295
    3176,  112648,  119288,  119165,  112511,  112645,  119294,  119163,  112512
    3177,  119288,  119289,  119164,  119165,  119294,  119295,  119162,  119163
    3178,  119289,  119223,  119137,  119164,  119295,  119220,  119136,  119162
    3179,  112640,  119243,  119290,  112647,  112641,  119241,  119296,  112644
    3180,  119243,  119242,  119291,  119290,  119241,  119240,  119297,  119296
    3181,  119242,  119212,  119222,  119291,  119240,  119213,  119219,  119297
    3182,  112647,  119290,  119292,  112646,  112644,  119296,  119298,  112643
    3183,  119290,  119291,  119293,  119292,  119296,  119297,  119299,  119298
    3184,  119291,  119222,  119221,  119293,  119297,  119219,  119218,  119299
    3185,  112646,  119292,  119294,  112645,  112643,  119298,  119300,  112642
    3186,  119292,  119293,  119295,  119294,  119298,  119299,  119301,  119300
    3187,  119293,  119221,  119220,  119295,  119299,  119218,  119217,  119301
    3188,  112645,  119294,  119163,  112512,  112642,  119300,  119161,  112513
    3189,  119294,  119295,  119162,  119163,  119300,  119301,  119160,  119161
    3190,  119295,  119220,  119136,  119162,  119301,  119217,  119135,  119160
    3191,  112641,  119241,  119296,  112644,  105892,  116640,  116646,  105893
    3192,  119241,  119240,  119297,  119296,  116640,  116641,  116645,  116646
    3193,  119240,  119213,  119219,  119297,  116641,  116639,  116642,  116645
    3194,  112644,  119296,  119298,  112643,  105893,  116646,  116648,  105894
    3195,  119296,  119297,  119299,  119298,  116646,  116645,  116647,  116648
    3196,  119297,  119219,  119218,  119299,  116645,  116642,  116643,  116647
    3197,  112643,  119298,  119300,  112642,  105894,  116648,  116650,  105895
    3198,  119298,  119299,  119301,  119300,  116648,  116647,  116649,  116650
    3199,  119299,  119218,  119217,  119301,  116647,  116643,  116644,  116649
    3200,  112642,  119300,  119161,  112513,  105895,  116650,  116559,  105798
    3201,  119300,  119301,  119160,  119161,  116650,  116649,  116560,  116559
    3202,  119301,  119217,  119135,  119160,  116649,  116644,  116558,  116560
*ELEMENT, TYPE=C3D8, ELSET=mortar
    3203,  113800,  113837,  114025,  114024,  113801,  114023,  114217,  114061
    3204,  113837,  113836,  114026,  114025,  114023,  114022,  114218,  114217
    3205,  113836,  113835,  114027,  114026,  114022,  114021,  114219,  114218
    3206,  113835,  113834,  114028,  114027,  114021,  114020,  114220,  114219
    3207,  113834,  113833,  114029,  114028,  114020,  114019,  114221,  114220
    3208,  113833,  113832,  114030,  114029,  114019,  114018,  114222,  114221
    3209,  113832,  113831,  114031,  114030,  114018,  114017,  114223,  114222
    3210,  113831,  113830,  114032,  114031,  114017,  114016,  114224,  114223
    3211,  113830,  113829,  114033,  114032,  114016,  114015,  114225,  114224
    3212,  113829,  113828,  114034,  114033,  114015,  114014,  114226,  114225
    3213,  113828,  113827,  114035,  114034,  114014,  114013,  114227,  114226
    3214,  113827,  113826,  114036,  114035,  114013,  114012,  114228,  114227
    3215,  113826,  113825,  114037,  114036,  114012,  114011,  114229,  114228
    3216,  113825,  113824,  114038,  114037,  114011,  114010,  114230,  114229
    3217,  113824,  113823,  114039,  114038,  114010,  114009,  114231,  114230
    3218,  113823,  113822,  114040,  114039,  114009,  114008,  114232,  114231
    3219,  113822,  113821,  114041,  114040,  114008,  114007,  114233,  114232
    3220,  113821,  113820,  114042,  114041,  114007,  114006,  114234,  114233
    3221,  113820,  113819,  114043,  114042,  114006,  114005,  114235,  114234
    3222,  113819,  113818,  114044,  114043,  114005,  114004,  114236,  114235
    3223,  113818,  113817,  114045,  114044,  114004,  114003,  114237,  114236
    3224,  113817,  113816,  114046,  114045,  114003,  114002,  114238,  114237
    3225,  113816,  113815,  114047,  114046,  114002,  114001,  114239,  114238
    3226,  113815,  113814,  114048,  114047,  114001,  114000,  114240,  114239
    3227,  113814,  113813,  114049,  114048,  114000,  113999,  114241,  114240
    3228,  113813,  113812,  114050,  114049,  113999,  113998,  114242,  114241
    3229,  113812,  113811,  114051,  114050,  113998,  113997,  114243,  114242
    3230,  113811,  113810,  114052,  114051,  113997,  113996,  114244,  114243
    3231,  113810,  113809,  114053,  114052,  113996,  113995,  114245,  114244
    3232,  113809,  113808,  114054,  114053,  113995,  113994,  114246,  114245
    3233,  113808,  113807,  114055,  114054,  113994,  113993,  114247,  114246
    3234,  113807,  113786,  113793,  114055,  113993,  113792,  113794,  114247
    3235,  113801,  114023,  114217,  114061,  113802,  113992,  114186,  114060
    3236,  114023,  114022,  114218,  114217,  113992,  113991,  114187,  114186
    3237,  114022,  114021,  114219,  114218,  113991,  113990,  114188,  114187
    3238,  114021,  114020,  114220,  114219,  113990,  113989,  114189,  114188
    3239,  114020,  114019,  114221,  114220,  113989,  113988,  114190,  114189
    3240,  114019,  114018,  114222,  114221,  113988,  113987,  114191,  114190
    3241,  114018,  114017,  114223,  114222,  113987,  113986,  114192,  114191
    3242,  114017,  114016,  114224,  114223,  113986,  113985,  114193,  114192
    3243,  114016,  114015,  114225,  114224,  113985,  113984,  114194,  114193
    3244,  114015,  114014,  114226,  114225,  113984,  113983,  114195,  114194
    3245,  114014,  114013,  114227,  114226,  113983,  113982,  114196,  114195
    3246,  114013,  114012,  114228,  114227,  113982,  113981,  114197,  114196
    3247,  114012,  114011,  114229,  114228,  113981,  113980,  114198,  114197
    3248,  114011,  114010,  114230,  114229,  113980,  113979,  114199,  114198
    3249,  114010,  114009,  114231,  114230,  113979,  113978,  114200,  114199
    3250,  114009,  114008,  114232,  114231,  113978,  113977,  114201,  114200
    3251,  114008,  114007,  114233,  114232,  113977,  113976,  114202,  114201
    3252,  114007,  114006,  114234,  114233,  113976,  113975,  114203,  114202
    3253,  114006,  114005,  114235,  114234,  113975,  113974,  114204,  114203
    3254,  114005,  114004,  114236,  114235,  113974,  113973,  114205,  114204
    3255,  114004,  114003,  114237,  114236,  113973,  113972,  114206,  114205
    3256,  114003,  114002,  114238,  114237,  113972,  113971,  114207,  114206
    3257,  114002,  114001,  114239,  114238,  113971,  113970,  114208,  114207
    3258,  114001,  114000,  114240,  114239,  113970,  113969,  114209,  114208
    3259,  114000,  113999,  114241,  114240,  113969,  113968,  114210,  114209
    3260,  113999,  113998,  114242,  114241,  113968,  113967,  114211,  114210
    3261,  113998,  113997,  114243,  114242,  113967,  113966,  114212,  114211
    3262,  113997,  113996,  114244,  114243,  113966,  113965,  114213,  114212
    3263,  113996,  113995,  114245,  114244,  113965,  113964,  114214,  114213
    3264,  113995,  113994,  114246,  114245,  113964,  113963,  114215,  114214
    3265,  113994,  113993,  114247,  114246,  113963,  113962,  114216,  114215
    3266,  113993,  113792,  113794,  114247,  113962,  113791,  113795,  114216
    3267,  113802,  113992,  114186,  114060,  113803,  113961,  114155,  114059
    3268,  113992,  113991,  114187,  114186,  113961,  113960,  114156,  114155
    3269,  113991,  113990,  114188,  114187,  113960,  113959,  114157,  114156
    3270,  113990,  113989,  114189,  114188,  113959,  113958,  114158,  114157
    3271,  113989,  113988,  114190,  114189,  113958,  113957,  114159,  114158
    3272,  113988,  113987,  114191,  114190,  113957,  113956,  114160,  114159
    3273,  113987,  113986,  114192,  114191,  113956,  113955,  114161,  114160
    3274,  113986,  113985,  114193,  114192,  113955,  113954,  114162,  114161
    3275,  113985,  113984,  114194,  114193,  113954,  113953,  114163,  114162
    3276,  113984,  113983,  114195,  114194,  113953,  113952,  114164,  114163
    3277,  113983,  113982,  114196,  114195,  113952,  113951,  114165,  114164
    3278,  113982,  113981,  114197,  114196,  113951,  113950,  114166,  114165
    3279,  113981,  113980,  114198,  114197,  113950,  113949,  114167,  114166
    3280,  113980,  113979,  114199,  114198,  113949,  113948,  114168,  114167
    3281,  113979,  113978,  114200,  114199,  113948,  113947,  114169,  114168
    3282,  113978,  113977,  114201,  114200,  113947,  113946,  114170,  114169
    3283,  113977,  113976,  114202,  114201,  113946,  113945,  114171,  114170
    3284,  113976,  113975,  114203,  114202,  113945,  113944,  114172,  114171
    3285,  113975,  113974,  114204,  114203,  113944,  113943,  114173,  114172
    3286,  113974,  113973,  114205,  114204,  113943,  113942,  114174,  114173
    3287,  113973,  113972,  114206,  114205,  113942,  113941,  114175,  114174
    3288,  113972,  113971,  114207,  114206,  113941,  113940,  114176,  114175
    3289,  113971,  113970,  114208,  114207,  113940,  113939,  114177,  114176
    3290,  113970,  113969,  114209,  114208,  113939,  113938,  114178,  114177
    3291,  113969,  113968,  114210,  114209,  113938,  113937,  114179,  114178
    3292,  113968,  113967,  114211,  114210,  113937,  113936,  114180,  114179
    3293,  113967,  113966,  114212,  114211,  113936,  113935,  114181,  114180
    3294,  113966,  113965,  114213,  114212,  113935,  113934,  114182,  114181
    3295,  113965,  113964,  114214,  114213,  113934,  113933,  114183,  114182
    3296,  113964,  113963,  114215,  114214,  113933,  113932,  114184,  114183
    3297,  113963,  113962,  114216,  114215,  113932,  113931,  114185,  114184
    3298,  113962,  113791,  113795,  114216,  113931,  113790,  113796,  114185
    3299,  113803,  113961,  114155,  114059,  113804,  113930,  114124,  114058
    3300,  113961,  113960,  114156,  114155,  113930,  113929,  114125,  114124
    3301,  113960,  113959,  114157,  114156,  113929,  113928,  114126,  114125
    3302,  113959,  113958,  114158,  114157,  113928,  113927,  114127,  114126
    3303,  113958,  113957,  114159,  114158,  113927,  113926,  114128,  114127
    3304,  113957,  113956,  114160,  114159,  113926,  113925,  114129,  114128
    3305,  113956,  113955,  114161,  114160,  113925,  113924,  114130,  114129
    3306,  113955,  113954,  114162,  114161,  113924,  113923,  114131,  114130
    3307,  113954,  113953,  114163,  114162,  113923,  113922,  114132,  114131
    3308,  113953,  113952,  114164,  114163,  113922,  113921,  114133,  114132
    3309,  113952,  113951,  114165,  114164,  113921,  113920,  114134,  114133
    3310,  113951,  113950,  114166,  114165,  113920,  113919,  114135,  114134
    3311,  113950,  113949,  114167,  114166,  113919,  113918,  114136,  114135
    3312,  113949,  113948,  114168,  114167,  113918,  113917,  114137,  114136
    3313,  113948,  113947,  114169,  114168,  113917,  113916,  114138,  114137
    3314,  113947,  113946,  114170,  114169,  113916,  113915,  114139,  114138
    3315,  113946,  113945,  114171,  114170,  113915,  113914,  114140,  114139
    3316,  113945,  113944,  114172,  114171,  113914,  113913,  114141,  114140
    3317,  113944,  113943,  114173,  114172,  113913,  113912,  114142,  114141
    3318,  113943,  113942,  114174,  114173,  113912,  113911,  114143,  114142
    3319,  113942,  113941,  114175,  114174,  113911,  113910,  114144,  114143
    3320,  113941,  113940,  114176,  114175,  113910,  113909,  114145,  114144
    3321,  113940,  113939,  114177,  114176,  113909,  113908,  114146,  114145
    3322,  113939,  113938,  114178,  114177,  113908,  113907,  114147,  114146
    3323,  113938,  113937,  114179,  114178,  113907,  113906,  114148,  114147
    3324,  113937,  113936,  114180,  114179,  113906,  113905,  114149,  114148
    3325,  113936,  113935,  114181,  114180,  113905,  113904,  114150,  114149
    3326,  113935,  113934,  114182,  114181,  113904,  113903,  114151,  114150
    3327,  113934,  113933,  114183,  114182,  113903,  113902,  114152,  114151
    3328,  113933,  113932,  114184,  114183,  113902,  113901,  114153,  114152
    3329,  113932,  113931,  114185,  114184,  113901,  113900,  114154,  114153
    3330,  113931,  113790,  113796,  114185,  113900,  113789,  113797,  114154
    3331,  113804,  113930,  114124,  114058,  113805,  113899,  114093,  114057
    3332,  113930,  113929,  114125,  114124,  113899,  113898,  114094,  114093
    3333,  113929,  113928,  114126,  114125,  113898,  113897,  114095,  114094
    3334,  113928,  113927,  114127,  114126,  113897,  113896,  114096,  114095
    3335,  113927,  113926,  114128,  114127,  113896,  113895,  114097,  114096
    3336,  113926,  113925,  114129,  114128,  113895,  113894,  114098,  114097
    3337,  113925,  113924,  114130,  114129,  113894,  113893,  114099,  114098
    3338,  113924,  113923,  114131,  114130,  113893,  113892,  114100,  114099
    3339,  113923,  113922,  114132,  114131,  113892,  113891,  114101,  114100
    3340,  113922,  113921,  114133,  114132,  113891,  113890,  114102,  114101
    3341,  113921,  113920,  114134,  114133,  113890,  113889,  114103,  114102
    3342,  113920,  113919,  114135,  114134,  113889,  113888,  114104,  114103
    3343,  113919,  113918,  114136,  114135,  113888,  113887,  114105,  114104
    3344,  113918,  113917,  114137,  114136,  113887,  113886,  114106,  114105
    3345,  113917,  113916,  114138,  114137,  113886,  113885,  114107,  114106
    3346,  113916,  113915,  114139,  114138,  113885,  113884,  114108,  114107
    3347,  113915,  113914,  114140,  114139,  113884,  113883,  114109,  114108
    3348,  113914,  113913,  114141,  114140,  113883,  113882,  114110,  114109
    3349,  113913,  113912,  114142,  114141,  113882,  113881,  114111,  114110
    3350,  113912,  113911,  114143,  114142,  113881,  113880,  114112,  114111
    3351,  113911,  113910,  114144,  114143,  113880,  113879,  114113,  114112
    3352,  113910,  113909,  114145,  114144,  113879,  113878,  114114,  114113
    3353,  113909,  113908,  114146,  114145,  113878,  113877,  114115,  114114
    3354,  113908,  113907,  114147,  114146,  113877,  113876,  114116,  114115
    3355,  113907,  113906,  114148,  114147,  113876,  113875,  114117,  114116
    3356,  113906,  113905,  114149,  114148,  113875,  113874,  114118,  114117
    3357,  113905,  113904,  114150,  114149,  113874,  113873,  114119,  114118
    3358,  113904,  113903,  114151,  114150,  113873,  113872,  114120,  114119
    3359,  113903,  113902,  114152,  114151,  113872,  113871,  114121,  114120
    3360,  113902,  113901,  114153,  114152,  113871,  113870,  114122,  114121
    3361,  113901,  113900,  114154,  114153,  113870,  113869,  114123,  114122
    3362,  113900,  113789,  113797,  114154,  113869,  113788,  113798,  114123
    3363,  113805,  113899,  114093,  114057,  113806,  113868,  114062,  114056
    3364,  113899,  113898,  114094,  114093,  113868,  113867,  114063,  114062
    3365,  113898,  113897,  114095,  114094,  113867,  113866,  114064,  114063
    3366,  113897,  113896,  114096,  114095,  113866,  113865,  114065,  114064
    3367,  113896,  113895,  114097,  114096,  113865,  113864,  114066,  114065
    3368,  113895,  113894,  114098,  114097,  113864,  113863,  114067,  114066
    3369,  113894,  113893,  114099,  114098,  113863,  113862,  114068,  114067
    3370,  113893,  113892,  114100,  114099,  113862,  113861,  114069,  114068
    3371,  113892,  113891,  114101,  114100,  113861,  113860,  114070,  114069
    3372,  113891,  113890,  114102,  114101,  113860,  113859,  114071,  114070
    3373,  113890,  113889,  114103,  114102,  113859,  113858,  114072,  114071
    3374,  113889,  113888,  114104,  114103,  113858,  113857,  114073,  114072
    3375,  113888,  113887,  114105,  114104,  113857,  113856,  114074,  114073
    3376,  113887,  113886,  114106,  114105,  113856,  113855,  114075,  114074
    3377,  113886,  113885,  114107,  114106,  113855,  113854,  114076,  114075
    3378,  113885,  113884,  114108,  114107,  113854,  113853,  114077,  114076
    3379,  113884,  113883,  114109,  114108,  113853,  113852,  114078,  114077
    3380,  113883,  113882,  114110,  114109,  113852,  113851,  114079,  114078
    3381,  113882,  113881,  114111,  114110,  113851,  113850,  114080,  114079
    3382,  113881,  113880,  114112,  114111,  113850,  113849,  114081,  114080
    3383,  113880,  113879,  114113,  114112,  113849,  113848,  114082,  114081
    3384,  113879,  113878,  114114,  114113,  113848,  113847,  114083,  114082
    3385,  113878,  113877,  114115,  114114,  113847,  113846,  114084,  114083
    3386,  113877,  113876,  114116,  114115,  113846,  113845,  114085,  114084
    3387,  113876,  113875,  114117,  114116,  113845,  113844,  114086,  114085
    3388,  113875,  113874,  114118,  114117,  113844,  113843,  114087,  114086
    3389,  113874,  113873,  114119,  114118,  113843,  113842,  114088,  114087
    3390,  113873,  113872,  114120,  114119,  113842,  113841,  114089,  114088
    3391,  113872,  113871,  114121,  114120,  113841,  113840,  114090,  114089
    3392,  113871,  113870,  114122,  114121,  113840,  113839,  114091,  114090
    3393,  113870,  113869,  114123,  114122,  113839,  113838,  114092,  114091
    3394,  113869,  113788,  113798,  114123,  113838,  113787,  113799,  114092
    3395,  113806,  113868,  114062,  114056,  113720,  113753,  113755,  113721
    3396,  113868,  113867,  114063,  114062,  113753,  113752,  113756,  113755
    3397,  113867,  113866,  114064,  114063,  113752,  113751,  113757,  113756
    3398,  113866,  113865,  114065,  114064,  113751,  113750,  113758,  113757
    3399,  113865,  113864,  114066,  114065,  113750,  113749,  113759,  113758
    3400,  113864,  113863,  114067,  114066,  113749,  113748,  113760,  113759
    3401,  113863,  113862,  114068,  114067,  113748,  113747,  113761,  113760
    3402,  113862,  113861,  114069,  114068,  113747,  113746,  113762,  113761
    3403,  113861,  113860,  114070,  114069,  113746,  113745,  113763,  113762
    3404,  113860,  113859,  114071,  114070,  113745,  113744,  113764,  113763
    3405,  113859,  113858,  114072,  114071,  113744,  113743,  113765,  113764
    3406,  113858,  113857,  114073,  114072,  113743,  113742,  113766,  113765
    3407,  113857,  113856,  114074,  114073,  113742,  113741,  113767,  113766
    3408,  113856,  113855,  114075,  114074,  113741,  113740,  113768,  113767
    3409,  113855,  113854,  114076,  114075,  113740,  113739,  113769,  113768
    3410,  113854,  113853,  114077,  114076,  113739,  113738,  113770,  113769
    3411,  113853,  113852,  114078,  114077,  113738,  113737,  113771,  113770
    3412,  113852,  113851,  114079,  114078,  113737,  113736,  113772,  113771
    3413,  113851,  113850,  114080,  114079,  113736,  113735,  113773,  113772
    3414,  113850,  113849,  114081,  114080,  113735,  113734,  113774,  113773
    3415,  113849,  113848,  114082,  114081,  113734,  113733,  113775,  113774
    3416,  113848,  113847,  114083,  114082,  113733,  113732,  113776,  113775
    3417,  113847,  113846,  114084,  114083,  113732,  113731,  113777,  113776
    3418,  113846,  113845,  114085,  114084,  113731,  113730,  113778,  113777
    3419,  113845,  113844,  114086,  114085,  113730,  113729,  113779,  113778
    3420,  113844,  113843,  114087,  114086,  113729,  113728,  113780,  113779
    3421,  113843,  113842,  114088,  114087,  113728,  113727,  113781,  113780
    3422,  113842,  113841,  114089,  114088,  113727,  113726,  113782,  113781
    3423,  113841,  113840,  114090,  114089,  113726,  113725,  113783,  113782
    3424,  113840,  113839,  114091,  114090,  113725,  113724,  113784,  113783
    3425,  113839,  113838,  114092,  114091,  113724,  113723,  113785,  113784
    3426,  113838,  113787,  113799,  114092,  113723,  113722,  113754,  113785
    3427,  113722,  117022,  116786,  113754,  113723,  117053,  116792,  113785
    3428,  117022,  117021,  116787,  116786,  117053,  117084,  116823,  116792
    3429,  117021,  117020,  116788,  116787,  117084,  117115,  116854,  116823
    3430,  117020,  117019,  116789,  116788,  117115,  117146,  116885,  116854
    3431,  117019,  117018,  116790,  116789,  117146,  117177,  116916,  116885
    3432,  117018,  117017,  116791,  116790,  117177,  117208,  116947,  116916
    3433,  117017,  116985,  116754,  116791,  117208,  117016,  116755,  116947
    3434,  113723,  117053,  116792,  113785,  113724,  117052,  116793,  113784
    3435,  117053,  117084,  116823,  116792,  117052,  117083,  116824,  116793
    3436,  117084,  117115,  116854,  116823,  117083,  117114,  116855,  116824
    3437,  117115,  117146,  116885,  116854,  117114,  117145,  116886,  116855
    3438,  117146,  117177,  116916,  116885,  117145,  117176,  116917,  116886
    3439,  117177,  117208,  116947,  116916,  117176,  117207,  116948,  116917
    3440,  117208,  117016,  116755,  116947,  117207,  117015,  116756,  116948
    3441,  113724,  117052,  116793,  113784,  113725,  117051,  116794,  113783
    3442,  117052,  117083,  116824,  116793,  117051,  117082,  116825,  116794
    3443,  117083,  117114,  116855,  116824,  117082,  117113,  116856,  116825
    3444,  117114,  117145,  116886,  116855,  117113,  117144,  116887,  116856
    3445,  117145,  117176,  116917,  116886,  117144,  117175,  116918,  116887
    3446,  117176,  117207,  116948,  116917,  117175,  117206,  116949,  116918
    3447,  117207,  117015,  116756,  116948,  117206,  117014,  116757,  116949
    3448,  113725,  117051,  116794,  113783,  113726,  117050,  116795,  113782
    3449,  117051,  117082,  116825,  116794,  117050,  117081,  116826,  116795
    3450,  117082,  117113,  116856,  116825,  117081,  117112,  116857,  116826
    3451,  117113,  117144,  116887,  116856,  117112,  117143,  116888,  116857
    3452,  117144,  117175,  116918,  116887,  117143,  117174,  116919,  116888
    3453,  117175,  117206,  116949,  116918,  117174,  117205,  116950,  116919
    3454,  117206,  117014,  116757,  116949,  117205,  117013,  116758,  116950
    3455,  113726,  117050,  116795,  113782,  113727,  117049,  116796,  113781
    3456,  117050,  117081,  116826,  116795,  117049,  117080,  116827,  116796
    3457,  117081,  117112,  116857,  116826,  117080,  117111,  116858,  116827
    3458,  117112,  117143,  116888,  116857,  117111,  117142,  116889,  116858
    3459,  117143,  117174,  116919,  116888,  117142,  117173,  116920,  116889
    3460,  117174,  117205,  116950,  116919,  117173,  117204,  116951,  116920
    3461,  117205,  117013,  116758,  116950,  117204,  117012,  116759,  116951
    3462,  113727,  117049,  116796,  113781,  113728,  117048,  116797,  113780
    3463,  117049,  117080,  116827,  116796,  117048,  117079,  116828,  116797
    3464,  117080,  117111,  116858,  116827,  117079,  117110,  116859,  116828
    3465,  117111,  117142,  116889,  116858,  117110,  117141,  116890,  116859
    3466,  117142,  117173,  116920,  116889,  117141,  117172,  116921,  116890
    3467,  117173,  117204,  116951,  116920,  117172,  117203,  116952,  116921
    3468,  117204,  117012,  116759,  116951,  117203,  117011,  116760,  116952
    3469,  113728,  117048,  116797,  113780,  113729,  117047,  116798,  113779
    3470,  117048,  117079,  116828,  116797,  117047,  117078,  116829,  116798
    3471,  117079,  117110,  116859,  116828,  117078,  117109,  116860,  116829
    3472,  117110,  117141,  116890,  116859,  117109,  117140,  116891,  116860
    3473,  117141,  117172,  116921,  116890,  117140,  117171,  116922,  116891
    3474,  117172,  117203,  116952,  116921,  117171,  117202,  116953,  116922
    3475,  117203,  117011,  116760,  116952,  117202,  117010,  116761,  116953
    3476,  113729,  117047,  116798,  113779,  113730,  117046,  116799,  113778
    3477,  117047,  117078,  116829,  116798,  117046,  117077,  116830,  116799
    3478,  117078,  117109,  116860,  116829,  117077,  117108,  116861,  116830
    3479,  117109,  117140,  116891,  116860,  117108,  117139,  116892,  116861
    3480,  117140,  117171,  116922,  116891,  117139,  117170,  116923,  116892
    3481,  117171,  117202,  116953,  116922,  117170,  117201,  116954,  116923
    3482,  117202,  117010,  116761,  116953,  117201,  117009,  116762,  116954
    3483,  113730,  117046,  116799,  113778,  113731,  117045,  116800,  113777
    3484,  117046,  117077,  116830,  116799,  117045,  117076,  116831,  116800
    3485,  117077,  117108,  116861,  116830,  117076,  117107,  116862,  116831
    3486,  117108,  117139,  116892,  116861,  117107,  117138,  116893,  116862
    3487,  117139,  117170,  116923,  116892,  117138,  117169,  116924,  116893
    3488,  117170,  117201,  116954,  116923,  117169,  117200,  116955,  116924
    3489,  117201,  117009,  116762,  116954,  117200,  117008,  116763,  116955
    3490,  113731,  117045,  116800,  113777,  113732,  117044,  116801,  113776
    3491,  117045,  117076,  116831,  116800,  117044,  117075,  116832,  116801
    3492,  117076,  117107,  116862,  116831,  117075,  117106,  116863,  116832
    3493,  117107,  117138,  116893,  116862,  117106,  117137,  116894,  116863
    3494,  117138,  117169,  116924,  116893,  117137,  117168,  116925,  116894
    3495,  117169,  117200,  116955,  116924,  117168,  117199,  116956,  116925
    3496,  117200,  117008,  116763,  116955,  117199,  117007,  116764,  116956
    3497,  113732,  117044,  116801,  113776,  113733,  117043,  116802,  113775
    3498,  117044,  117075,  116832,  116801,  117043,  117074,  116833,  116802
    3499,  117075,  117106,  116863,  116832,  117074,  117105,  116864,  116833
    3500,  117106,  117137,  116894,  116863,  117105,  117136,  116895,  116864
    3501,  117137,  117168,  116925,  116894,  117136,  117167,  116926,  116895
    3502,  117168,  117199,  116956,  116925,  117167,  117198,  116957,  116926
    3503,  117199,  117007,  116764,  116956,  117198,  117006,  116765,  116957
    3504,  113733,  117043,  116802,  113775,  113734,  117042,  116803,  113774
    3505,  117043,  117074,  116833,  116802,  117042,  117073,  116834,  116803
    3506,  117074,  117105,  116864,  116833,  117073,  117104,  116865,  116834
    3507,  117105,  117136,  116895,  116864,  117104,  117135,  116896,  116865
    3508,  117136,  117167,  116926,  116895,  117135,  117166,  116927,  116896
    3509,  117167,  117198,  116957,  116926,  117166,  117197,  116958,  116927
    3510,  117198,  117006,  116765,  116957,  117197,  117005,  116766,  116958
    3511,  113734,  117042,  116803,  113774,  113735,  117041,  116804,  113773
    3512,  117042,  117073,  116834,  116803,  117041,  117072,  116835,  116804
    3513,  117073,  117104,  116865,  116834,  117072,  117103,  116866,  116835
    3514,  117104,  117135,  116896,  116865,  117103,  117134,  116897,  116866
    3515,  117135,  117166,  116927,  116896,  117134,  117165,  116928,  116897
    3516,  117166,  117197,  116958,  116927,  117165,  117196,  116959,  116928
    3517,  117197,  117005,  116766,  116958,  117196,  117004,  116767,  116959
    3518,  113735,  117041,  116804,  113773,  113736,  117040,  116805,  113772
    3519,  117041,  117072,  116835,  116804,  117040,  117071,  116836,  116805
    3520,  117072,  117103,  116866,  116835,  117071,  117102,  116867,  116836
    3521,  117103,  117134,  116897,  116866,  117102,  117133,  116898,  116867
    3522,  117134,  117165,  116928,  116897,  117133,  117164,  116929,  116898
    3523,  117165,  117196,  116959,  116928,  117164,  117195,  116960,  116929
    3524,  117196,  117004,  116767,  116959,  117195,  117003,  116768,  116960
    3525,  113736,  117040,  116805,  113772,  113737,  117039,  116806,  113771
    3526,  117040,  117071,  116836,  116805,  117039,  117070,  116837,  116806
    3527,  117071,  117102,  116867,  116836,  117070,  117101,  116868,  116837
    3528,  117102,  117133,  116898,  116867,  117101,  117132,  116899,  116868
    3529,  117133,  117164,  116929,  116898,  117132,  117163,  116930,  116899
    3530,  117164,  117195,  116960,  116929,  117163,  117194,  116961,  116930
    3531,  117195,  117003,  116768,  116960,  117194,  117002,  116769,  116961
    3532,  113737,  117039,  116806,  113771,  113738,  117038,  116807,  113770
    3533,  117039,  117070,  116837,  116806,  117038,  117069,  116838,  116807
    3534,  117070,  117101,  116868,  116837,  117069,  117100,  116869,  116838
    3535,  117101,  117132,  116899,  116868,  117100,  117131,  116900,  116869
    3536,  117132,  117163,  116930,  116899,  117131,  117162,  116931,  116900
    3537,  117163,  117194,  116961,  116930,  117162,  117193,  116962,  116931
    3538,  117194,  117002,  116769,  116961,  117193,  117001,  116770,  116962
    3539,  113738,  117038,  116807,  113770,  113739,  117037,  116808,  113769
    3540,  117038,  117069,  116838,  116807,  117037,  117068,  116839,  116808
    3541,  117069,  117100,  116869,  116838,  117068,  117099,  116870,  116839
    3542,  117100,  117131,  116900,  116869,  117099,  117130,  116901,  116870
    3543,  117131,  117162,  116931,  116900,  117130,  117161,  116932,  116901
    3544,  117162,  117193,  116962,  116931,  117161,  117192,  116963,  116932
    3545,  117193,  117001,  116770,  116962,  117192,  117000,  116771,  116963
    3546,  113739,  117037,  116808,  113769,  113740,  117036,  116809,  113768
    3547,  117037,  117068,  116839,  116808,  117036,  117067,  116840,  116809
    3548,  117068,  117099,  116870,  116839,  117067,  117098,  116871,  116840
    3549,  117099,  117130,  116901,  116870,  117098,  117129,  116902,  116871
    3550,  117130,  117161,  116932,  116901,  117129,  117160,  116933,  116902
    3551,  117161,  117192,  116963,  116932,  117160,  117191,  116964,  116933
    3552,  117192,  117000,  116771,  116963,  117191,  116999,  116772,  116964
    3553,  113740,  117036,  116809,  113768,  113741,  117035,  116810,  113767
    3554,  117036,  117067,  116840,  116809,  117035,  117066,  116841,  116810
    3555,  117067,  117098,  116871,  116840,  117066,  117097,  116872,  116841
    3556,  117098,  117129,  116902,  116871,  117097,  117128,  116903,  116872
    3557,  117129,  117160,  116933,  116902,  117128,  117159,  116934,  116903
    3558,  117160,  117191,  116964,  116933,  117159,  117190,  116965,  116934
    3559,  117191,  116999,  116772,  116964,  117190,  116998,  116773,  116965
    3560,  113741,  117035,  116810,  113767,  113742,  117034,  116811,  113766
    3561,  117035,  117066,  116841,  116810,  117034,  117065,  116842,  116811
    3562,  117066,  117097,  116872,  116841,  117065,  117096,  116873,  116842
    3563,  117097,  117128,  116903,  116872,  117096,  117127,  116904,  116873
    3564,  117128,  117159,  116934,  116903,  117127,  117158,  116935,  116904
    3565,  117159,  117190,  116965,  116934,  117158,  117189,  116966,  116935
    3566,  117190,  116998,  116773,  116965,  117189,  116997,  116774,  116966
    3567,  113742,  117034,  116811,  113766,  113743,  117033,  116812,  113765
    3568,  117034,  117065,  116842,  116811,  117033,  117064,  116843,  116812
    3569,  117065,  117096,  116873,  116842,  117064,  117095,  116874,  116843
    3570,  117096,  117127,  116904,  116873,  117095,  117126,  116905,  116874
    3571,  117127,  117158,  116935,  116904,  117126,  117157,  116936,  116905
    3572,  117158,  117189,  116966,  116935,  117157,  117188,  116967,  116936
    3573,  117189,  116997,  116774,  116966,  117188,  116996,  116775,  116967
    3574,  113743,  117033,  116812,  113765,  113744,  117032,  116813,  113764
    3575,  117033,  117064,  116843,  116812,  117032,  117063,  116844,  116813
    3576,  117064,  117095,  116874,  116843,  117063,  117094,  116875,  116844
    3577,  117095,  117126,  116905,  116874,  117094,  117125,  116906,  116875
    3578,  117126,  117157,  116936,  116905,  117125,  117156,  116937,  116906
    3579,  117157,  117188,  116967,  116936,  117156,  117187,  116968,  116937
    3580,  117188,  116996,  116775,  116967,  117187,  116995,  116776,  116968
    3581,  113744,  117032,  116813,  113764,  113745,  117031,  116814,  113763
    3582,  117032,  117063,  116844,  116813,  117031,  117062,  116845,  116814
    3583,  117063,  117094,  116875,  116844,  117062,  117093,  116876,  116845
    3584,  117094,  117125,  116906,  116875,  117093,  117124,  116907,  116876
    3585,  117125,  117156,  116937,  116906,  117124,  117155,  116938,  116907
    3586,  117156,  117187,  116968,  116937,  117155,  117186,  116969,  116938
    3587,  117187,  116995,  116776,  116968,  117186,  116994,  116777,  116969
    3588,  113745,  117031,  116814,  113763,  113746,  117030,  116815,  113762
    3589,  117031,  117062,  116845,  116814,  117030,  117061,  116846,  116815
    3590,  117062,  117093,  116876,  116845,  117061,  117092,  116877,  116846
    3591,  117093,  117124,  116907,  116876,  117092,  117123,  116908,  116877
    3592,  117124,  117155,  116938,  116907,  117123,  117154,  116939,  116908
    3593,  117155,  117186,  116969,  116938,  117154,  117185,  116970,  116939
    3594,  117186,  116994,  116777,  116969,  117185,  116993,  116778,  116970
    3595,  113746,  117030,  116815,  113762,  113747,  117029,  116816,  113761
    3596,  117030,  117061,  116846,  116815,  117029,  117060,  116847,  116816
    3597,  117061,  117092,  116877,  116846,  117060,  117091,  116878,  116847
    3598,  117092,  117123,  116908,  116877,  117091,  117122,  116909,  116878
    3599,  117123,  117154,  116939,  116908,  117122,  117153,  116940,  116909
    3600,  117154,  117185,  116970,  116939,  117153,  117184,  116971,  116940
    3601,  117185,  116993,  116778,  116970,  117184,  116992,  116779,  116971
    3602,  113747,  117029,  116816,  113761,  113748,  117028,  116817,  113760
    3603,  117029,  117060,  116847,  116816,  117028,  117059,  116848,  116817
    3604,  117060,  117091,  116878,  116847,  117059,  117090,  116879,  116848
    3605,  117091,  117122,  116909,  116878,  117090,  117121,  116910,  116879
    3606,  117122,  117153,  116940,  116909,  117121,  117152,  116941,  116910
    3607,  117153,  117184,  116971,  116940,  117152,  117183,  116972,  116941
    3608,  117184,  116992,  116779,  116971,  117183,  116991,  116780,  116972
    3609,  113748,  117028,  116817,  113760,  113749,  117027,  116818,  113759
    3610,  117028,  117059,  116848,  116817,  117027,  117058,  116849,  116818
    3611,  117059,  117090,  116879,  116848,  117058,  117089,  116880,  116849
    3612,  117090,  117121,  116910,  116879,  117089,  117120,  116911,  116880
    3613,  117121,  117152,  116941,  116910,  117120,  117151,  116942,  116911
    3614,  117152,  117183,  116972,  116941,  117151,  117182,  116973,  116942
    3615,  117183,  116991,  116780,  116972,  117182,  116990,  116781,  116973
    3616,  113749,  117027,  116818,  113759,  113750,  117026,  116819,  113758
    3617,  117027,  117058,  116849,  116818,  117026,  117057,  116850,  116819
    3618,  117058,  117089,  116880,  116849,  117057,  117088,  116881,  116850
    3619,  117089,  117120,  116911,  116880,  117088,  117119,  116912,  116881
    3620,  117120,  117151,  116942,  116911,  117119,  117150,  116943,  116912
    3621,  117151,  117182,  116973,  116942,  117150,  117181,  116974,  116943
    3622,  117182,  116990,  116781,  116973,  117181,  116989,  116782,  116974
    3623,  113750,  117026,  116819,  113758,  113751,  117025,  116820,  113757
    3624,  117026,  117057,  116850,  116819,  117025,  117056,  116851,  116820
    3625,  117057,  117088,  116881,  116850,  117056,  117087,  116882,  116851
    3626,  117088,  117119,  116912,  116881,  117087,  117118,  116913,  116882
    3627,  117119,  117150,  116943,  116912,  117118,  117149,  116944,  116913
    3628,  117150,  117181,  116974,  116943,  117149,  117180,  116975,  116944
    3629,  117181,  116989,  116782,  116974,  117180,  116988,  116783,  116975
    3630,  113751,  117025,  116820,  113757,  113752,  117024,  116821,  113756
    3631,  117025,  117056,  116851,  116820,  117024,  117055,  116852,  116821
    3632,  117056,  117087,  116882,  116851,  117055,  117086,  116883,  116852
    3633,  117087,  117118,  116913,  116882,  117086,  117117,  116914,  116883
    3634,  117118,  117149,  116944,  116913,  117117,  117148,  116945,  116914
    3635,  117149,  117180,  116975,  116944,  117148,  117179,  116976,  116945
    3636,  117180,  116988,  116783,  116975,  117179,  116987,  116784,  116976
    3637,  113752,  117024,  116821,  113756,  113753,  117023,  116822,  113755
    3638,  117024,  117055,  116852,  116821,  117023,  117054,  116853,  116822
    3639,  117055,  117086,  116883,  116852,  117054,  117085,  116884,  116853
    3640,  117086,  117117,  116914,  116883,  117085,  117116,  116915,  116884
    3641,  117117,  117148,  116945,  116914,  117116,  117147,  116946,  116915
    3642,  117148,  117179,  116976,  116945,  117147,  117178,  116977,  116946
    3643,  117179,  116987,  116784,  116976,  117178,  116986,  116785,  116977
    3644,  113753,  117023,  116822,  113755,  113720,  116979,  116753,  113721
    3645,  117023,  117054,  116853,  116822,  116979,  116980,  116752,  116753
    3646,  117054,  117085,  116884,  116853,  116980,  116981,  116751,  116752
    3647,  117085,  117116,  116915,  116884,  116981,  116982,  116750,  116751
    3648,  117116,  117147,  116946,  116915,  116982,  116983,  116749,  116750
    3649,  117147,  117178,  116977,  116946,  116983,  116984,  116748,  116749
    3650,  117178,  116986,  116785,  116977,  116984,  116978,  116747,  116748
*ELEMENT, TYPE=C3D8, ELSET=washer
    3651,  106552,  106561,  106562,  106563,  106488,  106495,  106496,  106497
    3652,  106563,  106564,  106551,  106552,  106497,  106498,  106487,  106488
    3653,  106560,  106561,  106552,  106553,  106494,  106495,  106488,  106501
    3654,  106559,  106560,  106553,  106554,  106493,  106494,  106501,  106500
    3655,  106557,  106558,  106559,  106554,  106491,  106492,  106493,  106500
    3656,  106550,  106551,  106564,  106565,  106486,  106487,  106498,  106499
    3657,  106545,  106544,  106555,  106554,  106484,  106485,  106489,  106500
    3658,  106556,  106557,  106554,  106555,  106490,  106491,  106500,  106489
    3659,  106536,  106537,  106550,  106565,  106479,  106478,  106486,  106499
    3660,  106508,  106509,  106556,  106555,  106464,  106465,  106490,  106489
    3661,  106531,  106521,  106536,  106565,  106476,  106466,  106479,  106499
    3662,  106530,  106531,  106565,  106564,  106475,  106476,  106499,  106498
    3663,  106529,  106530,  106564,  106563,  106474,  106475,  106498,  106497
    3664,  106528,  106529,  106563,  106562,  106473,  106474,  106497,  106496
    3665,  106527,  106528,  106562,  106561,  106472,  106473,  106496,  106495
    3666,  106526,  106527,  106561,  106560,  106471,  106472,  106495,  106494
    3667,  106525,  106526,  106560,  106559,  106470,  106471,  106494,  106493
    3668,  106524,  106525,  106559,  106558,  106469,  106470,  106493,  106492
    3669,  106523,  106524,  106558,  106557,  106468,  106469,  106492,  106491
    3670,  106522,  106523,  106557,  106556,  106467,  106468,  106491,  106490
    3671,  106506,  106522,  106556,  106509,  106463,  106467,  106490,  106465
    3672,  106544,  106507,  106508,  106555,  106485,  106462,  106464,  106489
    3673,  106546,  106545,  106554,  106553,  106483,  106484,  106500,  106501
    3674,  106547,  106546,  106553,  106552,  106482,  106483,  106501,  106488
    3675,  106548,  106547,  106552,  106551,  106481,  106482,  106488,  106487
    3676,  106549,  106548,  106551,  106550,  106480,  106481,  106487,  106486
    3677,  106535,  106549,  106550,  106537,  106477,  106480,  106486,  106478
    3678,  106568,  106577,  106578,  106579,  106552,  106561,  106562,  106563
    3679,  106579,  106580,  106567,  106568,  106563,  106564,  106551,  106552
    3680,  106576,  106577,  106568,  106569,  106560,  106561,  106552,  106553
    3681,  106575,  106576,  106569,  106570,  106559,  106560,  106553,  106554
    3682,  106573,  106574,  106575,  106570,  106557,  106558,  106559,  106554
    3683,  106566,  106567,  106580,  106581,  106550,  106551,  106564,  106565
    3684,  106539,  106538,  106571,  106570,  106545,  106544,  106555,  106554
    3685,  106572,  106573,  106570,  106571,  106556,  106557,  106554,  106555
    3686,  106533,  106534,  106566,  106581,  106536,  106537,  106550,  106565
    3687,  106505,  106504,  106572,  106571,  106508,  106509,  106556,  106555
    3688,  106511,  106510,  106533,  106581,  106531,  106521,  106536,  106565
    3689,  106512,  106511,  106581,  106580,  106530,  106531,  106565,  106564
    3690,  106513,  106512,  106580,  106579,  106529,  106530,  106564,  106563
    3691,  106514,  106513,  106579,  106578,  106528,  106529,  106563,  106562
    3692,  106515,  106514,  106578,  106577,  106527,  106528,  106562,  106561
    3693,  106516,  106515,  106577,  106576,  106526,  106527,  106561,  106560
    3694,  106517,  106516,  106576,  106575,  106525,  106526,  106560,  106559
    3695,  106518,  106517,  106575,  106574,  106524,  106525,  106559,  106558
    3696,  106519,  106518,  106574,  106573,  106523,  106524,  106558,  106557
    3697,  106520,  106519,  106573,  106572,  106522,  106523,  106557,  106556
    3698,  106502,  106520,  106572,  106504,  106506,  106522,  106556,  106509
    3699,  106538,  106503,  106505,  106571,  106544,  106507,  106508,  106555
    3700,  106540,  106539,  106570,  106569,  106546,  106545,  106554,  106553
    3701,  106541,  106540,  106569,  106568,  106547,  106546,  106553,  106552
    3702,  106542,  106541,  106568,  106567,  106548,  106547,  106552,  106551
    3703,  106543,  106542,  106567,  106566,  106549,  106548,  106551,  106550
    3704,  106532,  106543,  106566,  106534,  106535,  106549,  106550,  106537
    3705,  113183,  113192,  113193,  113194,  113127,  113134,  113135,  113136
    3706,  113194,  113195,  113182,  113183,  113136,  113137,  113126,  113127
    3707,  113191,  113192,  113183,  113184,  113133,  113134,  113127,  113140
    3708,  113190,  113191,  113184,  113185,  113132,  113133,  113140,  113139
    3709,  113188,  113189,  113190,  113185,  113130,  113131,  113132,  113139
    3710,  113181,  113182,  113195,  113196,  113125,  113126,  113137,  113138
    3711,  113153,  113154,  113186,  113185,  113110,  113111,  113128,  113139
    3712,  113187,  113188,  113185,  113186,  113129,  113130,  113139,  113128
    3713,  106509,  106508,  113181,  113196,  106465,  106464,  113125,  113138
    3714,  113160,  113159,  113187,  113186,  113114,  113113,  113129,  113128
    3715,  113171,  106506,  106509,  113196,  113124,  106463,  106465,  113138
    3716,  113172,  113171,  113196,  113195,  113123,  113124,  113138,  113137
    3717,  113173,  113172,  113195,  113194,  113122,  113123,  113137,  113136
    3718,  113174,  113173,  113194,  113193,  113121,  113122,  113136,  113135
    3719,  113175,  113174,  113193,  113192,  113120,  113121,  113135,  113134
    3720,  113176,  113175,  113192,  113191,  113119,  113120,  113134,  113133
    3721,  113177,  113176,  113191,  113190,  113118,  113119,  113133,  113132
    3722,  113178,  113177,  113190,  113189,  113117,  113118,  113132,  113131
    3723,  113179,  113178,  113189,  113188,  113116,  113117,  113131,  113130
    3724,  113180,  113179,  113188,  113187,  113115,  113116,  113130,  113129
    3725,  113156,  113180,  113187,  113159,  113112,  113115,  113129,  113113
    3726,  113154,  113148,  113160,  113186,  113111,  113105,  113114,  113128
    3727,  113152,  113153,  113185,  113184,  113109,  113110,  113139,  113140
    3728,  113151,  113152,  113184,  113183,  113108,  113109,  113140,  113127
    3729,  113150,  113151,  113183,  113182,  113107,  113108,  113127,  113126
    3730,  113149,  113150,  113182,  113181,  113106,  113107,  113126,  113125
    3731,  106507,  113149,  113181,  106508,  106462,  113106,  113125,  106464
    3732,  113199,  113208,  113209,  113210,  113183,  113192,  113193,  113194
    3733,  113210,  113211,  113198,  113199,  113194,  113195,  113182,  113183
    3734,  113207,  113208,  113199,  113200,  113191,  113192,  113183,  113184
    3735,  113206,  113207,  113200,  113201,  113190,  113191,  113184,  113185
    3736,  113204,  113205,  113206,  113201,  113188,  113189,  113190,  113185
    3737,  113197,  113198,  113211,  113212,  113181,  113182,  113195,  113196
    3738,  113143,  113142,  113202,  113201,  113153,  113154,  113186,  113185
    3739,  113203,  113204,  113201,  113202,  113187,  113188,  113185,  113186
    3740,  106504,  106505,  113197,  113212,  106509,  106508,  113181,  113196
    3741,  113157,  113158,  113203,  113202,  113160,  113159,  113187,  113186
    3742,  113161,  106502,  106504,  113212,  113171,  106506,  106509,  113196
    3743,  113162,  113161,  113212,  113211,  113172,  113171,  113196,  113195
    3744,  113163,  113162,  113211,  113210,  113173,  113172,  113195,  113194
    3745,  113164,  113163,  113210,  113209,  113174,  113173,  113194,  113193
    3746,  113165,  113164,  113209,  113208,  113175,  113174,  113193,  113192
    3747,  113166,  113165,  113208,  113207,  113176,  113175,  113192,  113191
    3748,  113167,  113166,  113207,  113206,  113177,  113176,  113191,  113190
    3749,  113168,  113167,  113206,  113205,  113178,  113177,  113190,  113189
    3750,  113169,  113168,  113205,  113204,  113179,  113178,  113189,  113188
    3751,  113170,  113169,  113204,  113203,  113180,  113179,  113188,  113187
    3752,  113155,  113170,  113203,  113158,  113156,  113180,  113187,  113159
    3753,  113142,  113141,  113157,  113202,  113154,  113148,  113160,  113186
    3754,  113144,  113143,  113201,  113200,  113152,  113153,  113185,  113184
    3755,  113145,  113144,  113200,  113199,  113151,  113152,  113184,  113183
    3756,  113146,  113145,  113199,  113198,  113150,  113151,  113183,  113182
    3757,  113147,  113146,  113198,  113197,  113149,  113150,  113182,  113181
    3758,  106503,  113147,  113197,  106505,  106507,  113149,  113181,  106508
*ELEMENT, TYPE=C3D8, ELSET=nut
    3759,  106758,  106689,  106701,  106765,  106595,  106593,  106597,  106604
    3760,  106765,  106766,  106764,  106758,  106604,  106605,  106594,  106595
    3761,  106745,  106709,  106764,  106766,  106592,  106586,  106594,  106605
    3762,  106739,  106745,  106766,  106767,  106591,  106592,  106605,  106606
    3763,  106733,  106739,  106767,  106768,  106590,  106591,  106606,  106607
    3764,  106727,  106733,  106768,  106769,  106589,  106590,  106607,  106609
    3765,  106721,  106727,  106769,  106770,  106588,  106589,  106609,  106610
    3766,  106715,  106721,  106770,  106771,  106587,  106588,  106610,  106608
    3767,  106627,  106621,  106715,  106771,  106585,  106583,  106587,  106608
    3768,  106628,  106627,  106771,  106770,  106584,  106585,  106608,  106610
    3769,  106657,  106617,  106628,  106770,  106603,  106582,  106584,  106610
    3770,  106663,  106657,  106770,  106769,  106602,  106603,  106610,  106609
    3771,  106669,  106663,  106769,  106768,  106601,  106602,  106609,  106607
    3772,  106675,  106669,  106768,  106767,  106600,  106601,  106607,  106606
    3773,  106681,  106675,  106767,  106766,  106599,  106600,  106606,  106605
    3774,  106687,  106681,  106766,  106765,  106598,  106599,  106605,  106604
    3775,  106645,  106687,  106765,  106701,  106596,  106598,  106604,  106597
    3776,  106757,  106690,  106700,  106772,  106758,  106689,  106701,  106765
    3777,  106772,  106773,  106763,  106757,  106765,  106766,  106764,  106758
    3778,  106746,  106710,  106763,  106773,  106745,  106709,  106764,  106766
    3779,  106740,  106746,  106773,  106774,  106739,  106745,  106766,  106767
    3780,  106734,  106740,  106774,  106775,  106733,  106739,  106767,  106768
    3781,  106728,  106734,  106775,  106776,  106727,  106733,  106768,  106769
    3782,  106722,  106728,  106776,  106777,  106721,  106727,  106769,  106770
    3783,  106716,  106722,  106777,  106778,  106715,  106721,  106770,  106771
    3784,  106629,  106622,  106716,  106778,  106627,  106621,  106715,  106771
    3785,  106630,  106629,  106778,  106777,  106628,  106627,  106771,  106770
    3786,  106656,  106616,  106630,  106777,  106657,  106617,  106628,  106770
    3787,  106662,  106656,  106777,  106776,  106663,  106657,  106770,  106769
    3788,  106668,  106662,  106776,  106775,  106669,  106663,  106769,  106768
    3789,  106674,  106668,  106775,  106774,  106675,  106669,  106768,  106767
    3790,  106680,  106674,  106774,  106773,  106681,  106675,  106767,  106766
    3791,  106686,  106680,  106773,  106772,  106687,  106681,  106766,  106765
    3792,  106644,  106686,  106772,  106700,  106645,  106687,  106765,  106701
    3793,  106756,  106691,  106699,  106779,  106757,  106690,  106700,  106772
    3794,  106779,  106780,  106762,  106756,  106772,  106773,  106763,  106757
    3795,  106747,  106711,  106762,  106780,  106746,  106710,  106763,  106773
    3796,  106741,  106747,  106780,  106781,  106740,  106746,  106773,  106774
    3797,  106735,  106741,  106781,  106782,  106734,  106740,  106774,  106775
    3798,  106729,  106735,  106782,  106783,  106728,  106734,  106775,  106776
    3799,  106723,  106729,  106783,  106784,  106722,  106728,  106776,  106777
    3800,  106717,  106723,  106784,  106785,  106716,  106722,  106777,  106778
    3801,  106631,  106623,  106717,  106785,  106629,  106622,  106716,  106778
    3802,  106632,  106631,  106785,  106784,  106630,  106629,  106778,  106777
    3803,  106655,  106615,  106632,  106784,  106656,  106616,  106630,  106777
    3804,  106661,  106655,  106784,  106783,  106662,  106656,  106777,  106776
    3805,  106667,  106661,  106783,  106782,  106668,  106662,  106776,  106775
    3806,  106673,  106667,  106782,  106781,  106674,  106668,  106775,  106774
    3807,  106679,  106673,  106781,  106780,  106680,  106674,  106774,  106773
    3808,  106685,  106679,  106780,  106779,  106686,  106680,  106773,  106772
    3809,  106643,  106685,  106779,  106699,  106644,  106686,  106772,  106700
    3810,  106755,  106692,  106698,  106786,  106756,  106691,  106699,  106779
    3811,  106786,  106787,  106761,  106755,  106779,  106780,  106762,  106756
    3812,  106748,  106712,  106761,  106787,  106747,  106711,  106762,  106780
    3813,  106742,  106748,  106787,  106788,  106741,  106747,  106780,  106781
    3814,  106736,  106742,  106788,  106789,  106735,  106741,  106781,  106782
    3815,  106730,  106736,  106789,  106790,  106729,  106735,  106782,  106783
    3816,  106724,  106730,  106790,  106791,  106723,  106729,  106783,  106784
    3817,  106718,  106724,  106791,  106792,  106717,  106723,  106784,  106785
    3818,  106633,  106624,  106718,  106792,  106631,  106623,  106717,  106785
    3819,  106634,  106633,  106792,  106791,  106632,  106631,  106785,  106784
    3820,  106654,  106614,  106634,  106791,  106655,  106615,  106632,  106784
    3821,  106660,  106654,  106791,  106790,  106661,  106655,  106784,  106783
    3822,  106666,  106660,  106790,  106789,  106667,  106661,  106783,  106782
    3823,  106672,  106666,  106789,  106788,  106673,  106667,  106782,  106781
    3824,  106678,  106672,  106788,  106787,  106679,  106673,  106781,  106780
    3825,  106684,  106678,  106787,  106786,  106685,  106679,  106780,  106779
    3826,  106642,  106684,  106786,  106698,  106643,  106685,  106779,  106699
    3827,  106754,  106693,  106697,  106793,  106755,  106692,  106698,  106786
    3828,  106793,  106794,  106760,  106754,  106786,  106787,  106761,  106755
    3829,  106749,  106713,  106760,  106794,  106748,  106712,  106761,  106787
    3830,  106743,  106749,  106794,  106795,  106742,  106748,  106787,  106788
    3831,  106737,  106743,  106795,  106796,  106736,  106742,  106788,  106789
    3832,  106731,  106737,  106796,  106797,  106730,  106736,  106789,  106790
    3833,  106725,  106731,  106797,  106798,  106724,  106730,  106790,  106791
    3834,  106719,  106725,  106798,  106799,  106718,  106724,  106791,  106792
    3835,  106635,  106625,  106719,  106799,  106633,  106624,  106718,  106792
    3836,  106636,  106635,  106799,  106798,  106634,  106633,  106792,  106791
    3837,  106653,  106613,  106636,  106798,  106654,  106614,  106634,  106791
    3838,  106659,  106653,  106798,  106797,  106660,  106654,  106791,  106790
    3839,  106665,  106659,  106797,  106796,  106666,  106660,  106790,  106789
    3840,  106671,  106665,  106796,  106795,  106672,  106666,  106789,  106788
    3841,  106677,  106671,  106795,  106794,  106678,  106672,  106788,  106787
    3842,  106683,  106677,  106794,  106793,  106684,  106678,  106787,  106786
    3843,  106641,  106683,  106793,  106697,  106642,  106684,  106786,  106698
    3844,  106753,  106694,  106696,  106800,  106754,  106693,  106697,  106793
    3845,  106800,  106801,  106759,  106753,  106793,  106794,  106760,  106754
    3846,  106750,  106714,  106759,  106801,  106749,  106713,  106760,  106794
    3847,  106744,  106750,  106801,  106802,  106743,  106749,  106794,  106795
    3848,  106738,  106744,  106802,  106803,  106737,  106743,  106795,  106796
    3849,  106732,  106738,  106803,  106804,  106731,  106737,  106796,  106797
    3850,  106726,  106732,  106804,  106805,  106725,  106731,  106797,  106798
    3851,  106720,  106726,  106805,  106806,  106719,  106725,  106798,  106799
    3852,  106637,  106626,  106720,  106806,  106635,  106625,  106719,  106799
    3853,  106638,  106637,  106806,  106805,  106636,  106635,  106799,  106798
    3854,  106652,  106612,  106638,  106805,  106653,  106613,  106636,  106798
    3855,  106658,  106652,  106805,  106804,  106659,  106653,  106798,  106797
    3856,  106664,  106658,  106804,  106803,  106665,  106659,  106797,  106796
    3857,  106670,  106664,  106803,  106802,  106671,  106665,  106796,  106795
    3858,  106676,  106670,  106802,  106801,  106677,  106671,  106795,  106794
    3859,  106682,  106676,  106801,  106800,  106683,  106677,  106794,  106793
    3860,  106640,  106682,  106800,  106696,  106641,  106683,  106793,  106697
    3861,  106751,  106688,  106695,  106807,  106753,  106694,  106696,  106800
    3862,  106807,  106808,  106752,  106751,  106800,  106801,  106759,  106753
    3863,  106703,  106702,  106752,  106808,  106750,  106714,  106759,  106801
    3864,  106704,  106703,  106808,  106809,  106744,  106750,  106801,  106802
    3865,  106705,  106704,  106809,  106810,  106738,  106744,  106802,  106803
    3866,  106706,  106705,  106810,  106811,  106732,  106738,  106803,  106804
    3867,  106707,  106706,  106811,  106812,  106726,  106732,  106804,  106805
    3868,  106708,  106707,  106812,  106813,  106720,  106726,  106805,  106806
    3869,  106619,  106618,  106708,  106813,  106637,  106626,  106720,  106806
    3870,  106620,  106619,  106813,  106812,  106638,  106637,  106806,  106805
    3871,  106646,  106611,  106620,  106812,  106652,  106612,  106638,  106805
    3872,  106647,  106646,  106812,  106811,  106658,  106652,  106805,  106804
    3873,  106648,  106647,  106811,  106810,  106664,  106658,  106804,  106803
    3874,  106649,  106648,  106810,  106809,  106670,  106664,  106803,  106802
    3875,  106650,  106649,  106809,  106808,  106676,  106670,  106802,  106801
    3876,  106651,  106650,  106808,  106807,  106682,  106676,  106801,  106800
    3877,  106639,  106651,  106807,  106695,  106640,  106682,  106800,  106696
    3878,  113365,  113366,  113372,  113371,  113231,  113232,  113238,  113235
    3879,  113345,  113371,  113372,  113339,  113230,  113235,  113238,  113229
    3880,  113333,  113339,  113372,  113366,  113228,  113229,  113238,  113232
    3881,  113327,  113333,  113366,  113367,  113227,  113228,  113232,  113233
    3882,  113353,  113359,  113369,  113370,  113223,  113224,  113236,  113234
    3883,  113370,  113254,  113253,  113353,  113234,  113221,  113220,  113223
    3884,  113321,  113327,  113367,  113368,  113226,  113227,  113233,  113237
    3885,  113315,  113321,  113368,  113369,  113225,  113226,  113237,  113236
    3886,  113303,  113315,  113369,  113359,  113222,  113225,  113236,  113224
    3887,  106627,  106628,  113365,  113371,  106585,  106584,  113231,  113235
    3888,  106621,  106627,  113371,  113345,  106583,  106585,  113235,  113230
    3889,  113296,  113240,  113254,  113370,  113219,  113213,  113221,  113234
    3890,  113290,  113296,  113370,  113369,  113218,  113219,  113234,  113236
    3891,  113284,  113290,  113369,  113368,  113217,  113218,  113236,  113237
    3892,  113278,  113284,  113368,  113367,  113216,  113217,  113237,  113233
    3893,  113272,  113278,  113367,  113366,  113215,  113216,  113233,  113232
    3894,  113266,  113272,  113366,  113365,  113214,  113215,  113232,  113231
    3895,  106617,  113266,  113365,  106628,  106582,  113214,  113231,  106584
    3896,  113373,  113374,  113380,  113379,  113365,  113366,  113372,  113371
    3897,  113346,  113379,  113380,  113340,  113345,  113371,  113372,  113339
    3898,  113334,  113340,  113380,  113374,  113333,  113339,  113372,  113366
    3899,  113328,  113334,  113374,  113375,  113327,  113333,  113366,  113367
    3900,  113354,  113360,  113377,  113378,  113353,  113359,  113369,  113370
    3901,  113378,  113255,  113252,  113354,  113370,  113254,  113253,  113353
    3902,  113322,  113328,  113375,  113376,  113321,  113327,  113367,  113368
    3903,  113316,  113322,  113376,  113377,  113315,  113321,  113368,  113369
    3904,  113304,  113316,  113377,  113360,  113303,  113315,  113369,  113359
    3905,  106629,  106630,  113373,  113379,  106627,  106628,  113365,  113371
    3906,  106622,  106629,  113379,  113346,  106621,  106627,  113371,  113345
    3907,  113297,  113241,  113255,  113378,  113296,  113240,  113254,  113370
    3908,  113291,  113297,  113378,  113377,  113290,  113296,  113370,  113369
    3909,  113285,  113291,  113377,  113376,  113284,  113290,  113369,  113368
    3910,  113279,  113285,  113376,  113375,  113278,  113284,  113368,  113367
    3911,  113273,  113279,  113375,  113374,  113272,  113278,  113367,  113366
    3912,  113267,  113273,  113374,  113373,  113266,  113272,  113366,  113365
    3913,  106616,  113267,  113373,  106630,  106617,  113266,  113365,  106628
    3914,  113381,  113382,  113388,  113387,  113373,  113374,  113380,  113379
    3915,  113347,  113387,  113388,  113341,  113346,  113379,  113380,  113340
    3916,  113335,  113341,  113388,  113382,  113334,  113340,  113380,  113374
    3917,  113329,  113335,  113382,  113383,  113328,  113334,  113374,  113375
    3918,  113355,  113361,  113385,  113386,  113354,  113360,  113377,  113378
    3919,  113386,  113256,  113251,  113355,  113378,  113255,  113252,  113354
    3920,  113323,  113329,  113383,  113384,  113322,  113328,  113375,  113376
    3921,  113317,  113323,  113384,  113385,  113316,  113322,  113376,  113377
    3922,  113305,  113317,  113385,  113361,  113304,  113316,  113377,  113360
    3923,  106631,  106632,  113381,  113387,  106629,  106630,  113373,  113379
    3924,  106623,  106631,  113387,  113347,  106622,  106629,  113379,  113346
    3925,  113298,  113242,  113256,  113386,  113297,  113241,  113255,  113378
    3926,  113292,  113298,  113386,  113385,  113291,  113297,  113378,  113377
    3927,  113286,  113292,  113385,  113384,  113285,  113291,  113377,  113376
    3928,  113280,  113286,  113384,  113383,  113279,  113285,  113376,  113375
    3929,  113274,  113280,  113383,  113382,  113273,  113279,  113375,  113374
    3930,  113268,  113274,  113382,  113381,  113267,  113273,  113374,  113373
    3931,  106615,  113268,  113381,  106632,  106616,  113267,  113373,  106630
    3932,  113389,  113390,  113396,  113395,  113381,  113382,  113388,  113387
    3933,  113348,  113395,  113396,  113342,  113347,  113387,  113388,  113341
    3934,  113336,  113342,  113396,  113390,  113335,  113341,  113388,  113382
    3935,  113330,  113336,  113390,  113391,  113329,  113335,  113382,  113383
    3936,  113356,  113362,  113393,  113394,  113355,  113361,  113385,  113386
    3937,  113394,  113257,  113250,  113356,  113386,  113256,  113251,  113355
    3938,  113324,  113330,  113391,  113392,  113323,  113329,  113383,  113384
    3939,  113318,  113324,  113392,  113393,  113317,  113323,  113384,  113385
    3940,  113306,  113318,  113393,  113362,  113305,  113317,  113385,  113361
    3941,  106633,  106634,  113389,  113395,  106631,  106632,  113381,  113387
    3942,  106624,  106633,  113395,  113348,  106623,  106631,  113387,  113347
    3943,  113299,  113243,  113257,  113394,  113298,  113242,  113256,  113386
    3944,  113293,  113299,  113394,  113393,  113292,  113298,  113386,  113385
    3945,  113287,  113293,  113393,  113392,  113286,  113292,  113385,  113384
    3946,  113281,  113287,  113392,  113391,  113280,  113286,  113384,  113383
    3947,  113275,  113281,  113391,  113390,  113274,  113280,  113383,  113382
    3948,  113269,  113275,  113390,  113389,  113268,  113274,  113382,  113381
    3949,  106614,  113269,  113389,  106634,  106615,  113268,  113381,  106632
    3950,  113397,  113398,  113404,  113403,  113389,  113390,  113396,  113395
    3951,  113349,  113403,  113404,  113343,  113348,  113395,  113396,  113342
    3952,  113337,  113343,  113404,  113398,  113336,  113342,  113396,  113390
    3953,  113331,  113337,  113398,  113399,  113330,  113336,  113390,  113391
    3954,  113357,  113363,  113401,  113402,  113356,  113362,  113393,  113394
    3955,  113402,  113258,  113249,  113357,  113394,  113257,  113250,  113356
    3956,  113325,  113331,  113399,  113400,  113324,  113330,  113391,  113392
    3957,  113319,  113325,  113400,  113401,  113318,  113324,  113392,  113393
    3958,  113307,  113319,  113401,  113363,  113306,  113318,  113393,  113362
    3959,  106635,  106636,  113397,  113403,  106633,  106634,  113389,  113395
    3960,  106625,  106635,  113403,  113349,  106624,  106633,  113395,  113348
    3961,  113300,  113244,  113258,  113402,  113299,  113243,  113257,  113394
    3962,  113294,  113300,  113402,  113401,  113293,  113299,  113394,  113393
    3963,  113288,  113294,  113401,  113400,  113287,  113293,  113393,  113392
    3964,  113282,  113288,  113400,  113399,  113281,  113287,  113392,  113391
    3965,  113276,  113282,  113399,  113398,  113275,  113281,  113391,  113390
    3966,  113270,  113276,  113398,  113397,  113269,  113275,  113390,  113389
    3967,  106613,  113270,  113397,  106636,  106614,  113269,  113389,  106634
    3968,  113405,  113406,  113412,  113411,  113397,  113398,  113404,  113403
    3969,  113350,  113411,  113412,  113344,  113349,  113403,  113404,  113343
    3970,  113338,  113344,  113412,  113406,  113337,  113343,  113404,  113398
    3971,  113332,  113338,  113406,  113407,  113331,  113337,  113398,  113399
    3972,  113358,  113364,  113409,  113410,  113357,  113363,  113401,  113402
    3973,  113410,  113259,  113248,  113358,  113402,  113258,  113249,  113357
    3974,  113326,  113332,  113407,  113408,  113325,  113331,  113399,  113400
    3975,  113320,  113326,  113408,  113409,  113319,  113325,  113400,  113401
    3976,  113308,  113320,  113409,  113364,  113307,  113319,  113401,  113363
    3977,  106637,  106638,  113405,  113411,  106635,  106636,  113397,  113403
    3978,  106626,  106637,  113411,  113350,  106625,  106635,  113403,  113349
    3979,  113301,  113245,  113259,  113410,  113300,  113244,  113258,  113402
    3980,  113295,  113301,  113410,  113409,  113294,  113300,  113402,  113401
    3981,  113289,  113295,  113409,  113408,  113288,  113294,  113401,  113400
    3982,  113283,  113289,  113408,  113407,  113282,  113288,  113400,  113399
    3983,  113277,  113283,  113407,  113406,  113276,  113282,  113399,  113398
    3984,  113271,  113277,  113406,  113405,  113270,  113276,  113398,  113397
    3985,  106612,  113271,  113405,  106638,  106613,  113270,  113397,  106636
    3986,  113413,  113414,  113420,  113419,  113405,  113406,  113412,  113411
    3987,  113309,  113419,  113420,  113310,  113350,  113411,  113412,  113344
    3988,  113311,  113310,  113420,  113414,  113338,  113344,  113412,  113406
    3989,  113312,  113311,  113414,  113415,  113332,  113338,  113406,  113407
    3990,  113352,  113351,  113417,  113418,  113358,  113364,  113409,  113410
    3991,  113418,  113247,  113246,  113352,  113410,  113259,  113248,  113358
    3992,  113313,  113312,  113415,  113416,  113326,  113332,  113407,  113408
    3993,  113314,  113313,  113416,  113417,  113320,  113326,  113408,  113409
    3994,  113302,  113314,  113417,  113351,  113308,  113320,  113409,  113364
    3995,  106619,  106620,  113413,  113419,  106637,  106638,  113405,  113411
    3996,  106618,  106619,  113419,  113309,  106626,  106637,  113411,  113350
    3997,  113260,  113239,  113247,  113418,  113301,  113245,  113259,  113410
    3998,  113261,  113260,  113418,  113417,  113295,  113301,  113410,  113409
    3999,  113262,  113261,  113417,  113416,  113289,  113295,  113409,  113408
    4000,  113263,  113262,  113416,  113415,  113283,  113289,  113408,  113407
    4001,  113264,  113263,  113415,  113414,  113277,  113283,  113407,  113406
    4002,  113265,  113264,  113414,  113413,  113271,  113277,  113406,  113405
    4003,  106611,  113265,  113413,  106620,  106612,  113271,  113405,  106638
********************************** N O D E S E T S **********************************
*NSET, NSET=z_symm_steel
  104286,  104290,  104291,  104292,  104293,  104294,
  104327,  104328,  104329,  104330,  104331,  104332,
  104333,  104334,  104335,  104336,  104337,  104338,
  104339,  104340,  104397,  104398,  104399,  104400,
  104401,  104402,  104403,  104404,  104405,  104406,
  104407,  104408,  104409,  104410,  104411,  104412,
  104413,  104414,  104415,  104416,  104417,  104418,
  104419,  104420,  104421,  104422,  104423,  104424,
  104425,  104426,  104427,  104428,  104429,  104430,
  104431,  104432,  104433,  104434,  104435,  104436,
  104437,  104438,  104439,  104440,  104441,  104442,
  104443,  104444,  104445,  104446,  104447,  104448,
  104449,  104450,  104451,  104452,  104708,  104712,
  104713,  104720,  104721,  104722,  104723,  104724,
  104727,  104728,  104729,  104730,  104731,  104732,
  104733,  104734,  104805,  104809,  104810,  104811,
  104812,  104813,  104814,  104815,  104816,  104817,
  104818,  104819,  104820,  104821,  104822,  104823,
  104869,  104870,  104871,  104872,  104873,  104881,
  104889,  104890,  104891,  104892,  104893,  104894,
  104895,  104896,  104897,  104898,  104899,  104900,
  104901,  104902,  104903,  104904,  104905,  104906,
  104907,  104908,  104909,  104910,  104911,  104912,
  104913,  104914,  104915,  104916,  104917,  104918,
  104919,  104920,  104921,  104922,  104923,  104924,
  104925,  104926,  104927,  104928,  104929,  104930,
  104931,  104932,  104933,  104934,  104935,  104936,
  104937,  104938,  104939,  104940,  104941,  104942,
  104943,  104944,  104945,  104946,  104947,  104948,
  105257,  105261,  105262,  105263,  105264,  105265,
  105266,  105267,  105268,  105269,  105270,  105271,
  105272,  105273,  105274,  105275,  105276,  105277,
  105278,  105279,  105338,  105339,  105340,  105341,
  105361,  105362,  105363,  105364,  105365,  105366,
  105367,  105368,  105369,  105370,  105371,  105372,
  105373,  105374,  105375,  105376,  105377,  105378,
  105379,  105380,  105381,  105382,  105383,  105384,
  105385,  105386,  105387,  105388,  105389,  105390,
  105391,  105392,  105393,  105394,  105395,  105396,
  105397,  105398,  105399,  105400,  105401,  105402,
  105403,  105404,  105405,  105406,  105407,  105408,
  105409,  105410,  105411,  105412,  105413,  105414,
  105415,  105416,  105417,  105418,  105419,  105420,
  105421,  105422,  105423,  105424,  105425,  105426,
  105427,  105428,  105429,  105430,  105431,  105432,
  105433,  105434,  105435,  105436,  105803,  105811,
  105812,  105813,  105814,  105815,  105916,  105918,
  105948,  105949,  105950,  105951,  105952,  105953,
  105954,  105955,  105956,  105957,  105958,  105959,
  105960,  105961,  105962,  105963,  105964,  105965,
  105966,  105967,  106284,  106300,  106301,  106302,
  106303,  106304,  106305,  106306,  106307,  106308,
  106309,  106477,  106478,  106479,  106521,  106532,
  106533,  106534,  106535,  106536,  106537,  106593,
  106596,  106597,  106639,  106688,  106689,  106690,
  106691,  106692,  106693,  106694,  106695,  106696,
  106697,  106698,  106699,  106700,  106701,  111247,
  111248,  111249,  111250,  111263,  111361,  111362,
  111363,  111364,  111365,  111366,  111367,  111368,
  111369,  111370,  111371,  111372,  111373,  111374,
  111375,  111376,  111377,  111378,  111379,  111380,
  111381,  111382,  111383,  111384,  111385,  111386,
  111387,  111388,  111389,  111390,  111391,  111392,
  111393,  111394,  111395,  111396,  111397,  111398,
  111399,  111400,  111401,  111402,  111403,  111404,
  111405,  111406,  111407,  111408,  111409,  111410,
  111411,  111412,  111413,  111414,  111415,  111416,
  111606,  111607,  111608,  111609,  111610,  111611,
  111612,  111613,  111614,  111615,  111616,  111617,
  111668,  111766,  111767,  111768,  111769,  111770,
  111771,  111772,  111773,  111774,  111775,  111776,
  111777,  111778,  111779,  111780,  111781,  111782,
  111783,  111784,  111785,  111786,  111787,  111788,
  111789,  111790,  111791,  111792,  111793,  111794,
  111795,  111796,  111797,  111798,  111799,  111800,
  111801,  111802,  111803,  111804,  111805,  111806,
  111807,  111808,  111809,  111810,  111811,  111812,
  111813,  111814,  111815,  111816,  111817,  111818,
  111819,  111820,  111821,  111822,  111823,  111824,
  111825,  111826,  111827,  111828,  111829,  112022,
  112162,  112163,  112164,  112165,  112166,  112167,
  112168,  112169,  112170,  112171,  112172,  112173,
  112174,  112175,  112176,  112177,  112178,  112179,
  112180,  112181,  112182,  112183,  112184,  112185,
  112186,  112187,  112188,  112189,  112190,  112191,
  112192,  112193,  112194,  112195,  112196,  112197,
  112198,  112199,  112200,  112201,  112202,  112203,
  112204,  112205,  112206,  112207,  112208,  112209,
  112210,  112211,  112212,  112213,  112214,  112215,
  112216,  112217,  112218,  112219,  112220,  112221,
  112222,  112223,  112224,  112225,  112226,  112227,
  112228,  112229,  112230,  112231,  112232,  112233,
  112234,  112235,  112236,  112237,  112238,  112239,
  112240,  112241,  112492,  112503,  112504,  112505,
  112506,  112613,  112615,  112616,  112617,  112618,
  112619,  112620,  112621,  112622,  112623,  112624,
  112625,  112626,  112627,  112628,  112629,  112630,
  112631,  112632,  112633,  112634,  112949,  112950,
  112951,  112952,  112953,  112954,  112955,  112956,
  112957,  112958,  113112,  113113,  113114,  113148,
  113155,  113156,  113157,  113158,  113159,  113160,
  113220,  113221,  113246,  113247,  113248,  113249,
  113250,  113251,  113252,  113253,  113254,  113255,
  113256,  113257,  113258,  113259,  113822,  114040,
  116567,  116568,  116569,  116591,  116592,  116593,
  116594,  116595,  116596,  116651,  116652,  116653,
  116657,  116658,  116659,  116660,  116661,  116662,
  116747,  116754,  116770,  116978,  116985,  117001,
  119143,  119158,  119159,  119174,  119175,  119176,
  119177,  119238,  119239,  119254,  119255,  119256,
  119257,  119258,  119259,
*NSET, NSET=plate_left_loading
  112482,  112492,  112493,  112494,  112495,  112496,
  112497,  112498,  112499,  112500,  112501,
********************************** S I D E S E T S **********************************
*ELSET, ELSET=plate_bottom_S1
    2090,    2091,    2092,    2093,    2094,    2095,    2096,    2097,    2098,    2099,
    2100,    2101,    2102,    2103,    2104,    2105,    2106,    2107,    2108,    2109,
    2110,    2111,    2112,    2113,    2114,    2115,    2116,    2117,    2118,    2119,
    2120,    2121,    2122,    2123,    2124,    2125,    2126,    2127,    2128,    2129,
    2130,    2131,    2132,    2133,    2134,    2135,    2136,    2137,    2138,    2139,
    2140,    2141,    2142,    2143,    2144,    2145,    2146,    2147,    2148,    2149,
    2150,    2151,    2152,    2153,    2154,    2155,    2156,    2157,    2158,    2159,
    2160,    2161,    2162,    2163,    2164,    2465,    2466,    2467,    2468,    2469,
    2470,    2471,    2472,    2473,    2474,    2475,    2476,    2477,    2478,    2479,
    2480,    2481,    2482,    2483,    2484,    2485,    2486,    2487,    2488,    2684,
    2685,    2686,    2687,    2688,    2689,    2690,    2691,    2692,    2693,    2694,
    2695,    2696,    2697,    2698,    2699,    2700,    2701,    2702,    2703,    2704,
    2705,    2706,    2707,    2708,    2709,    2710,    2711,    2712,    2713,    2714,
    2715,    2716,    2717,    2718,    2719,    2720,    2721,    2722,    2723,    2724,
    2725,    2726,    2727,    2728,    2729,    2730,    2731,    2732,    2733,    2734,
    2735,    2736,    2737,    2738,    2739,    2740,    2741,    2742,    2743,    2744,
    2745,    2746,    2747,    2748,    2749,    2750,    2751,    2752,    2753,    2754,
    2755,    2756,    2757,    2758
*ELSET, ELSET=plate_bottom_S5
    3062,    3063,    3064,    3068,    3069,    3070,    3074,    3075,    3076,    3080,
    3081,    3082,    3086,    3087,    3088,    3092,    3093,    3094,    3098,    3099,
    3100,    3104,    3105,    3106
*SURFACE, NAME=plate_bottom, TYPE=ELEMENT
plate_bottom_S1, S1
plate_bottom_S5, S5
*ELSET, ELSET=plate_top_S2
    2390,    2391,    2392,    2393,    2394,    2395,    2396,    2397,    2398,    2399,
    2400,    2401,    2402,    2403,    2404,    2405,    2406,    2407,    2408,    2409,
    2410,    2411,    2412,    2413,    2414,    2415,    2416,    2417,    2418,    2419,
    2420,    2421,    2422,    2423,    2424,    2425,    2426,    2427,    2428,    2429,
    2430,    2431,    2432,    2433,    2434,    2435,    2436,    2437,    2438,    2439,
    2440,    2441,    2442,    2443,    2444,    2445,    2446,    2447,    2448,    2449,
    2450,    2451,    2452,    2453,    2454,    2455,    2456,    2457,    2458,    2459,
    2460,    2461,    2462,    2463,    2464,    2984,    2985,    2986,    2987,    2988,
    2989,    2990,    2991,    2992,    2993,    2994,    2995,    2996,    2997,    2998,
    2999,    3000,    3001,    3002,    3003,    3004,    3005,    3006,    3007,    3008,
    3009,    3010,    3011,    3012,    3013,    3014,    3015,    3016,    3017,    3018,
    3019,    3020,    3021,    3022,    3023,    3024,    3025,    3026,    3027,    3028,
    3029,    3030,    3031,    3032,    3033,    3034,    3035,    3036,    3037,    3038,
    3039,    3040,    3041,    3042,    3043,    3044,    3045,    3046,    3047,    3048,
    3049,    3050,    3051,    3052,    3053,    3054,    3055,    3056,    3057,    3058
*ELSET, ELSET=plate_top_S3
    2513,    2514,    2515,    2516,    2517,    2518,    2519,    2520,    2545,    2546,
    2547,    2548,    2549,    2550,    2551,    2552,    2577,    2578,    2579,    2580,
    2581,    2582,    2583,    2584,    3107,    3108,    3109,    3119,    3120,    3121,
    3131,    3132,    3133,    3143,    3144,    3145,    3155,    3156,    3157,    3167,
    3168,    3169,    3179,    3180,    3181,    3191,    3192,    3193
*SURFACE, NAME=plate_top, TYPE=ELEMENT
plate_top_S2, S2
plate_top_S3, S3
*ELSET, ELSET=mortar_to_concrete_S3
    3203,    3204,    3205,    3206,    3207,    3208,    3209,    3210,    3211,    3212,
    3213,    3214,    3215,    3216,    3217,    3218,    3219,    3220,    3221,    3222,
    3223,    3224,    3225,    3226,    3227,    3228,    3229,    3230,    3231,    3232,
    3233,    3234,    3235,    3236,    3237,    3238,    3239,    3240,    3241,    3242,
    3243,    3244,    3245,    3246,    3247,    3248,    3249,    3250,    3251,    3252,
    3253,    3254,    3255,    3256,    3257,    3258,    3259,    3260,    3261,    3262,
    3263,    3264,    3265,    3266,    3267,    3268,    3269,    3270,    3271,    3272,
    3273,    3274,    3275,    3276,    3277,    3278,    3279,    3280,    3281,    3282,
    3283,    3284,    3285,    3286,    3287,    3288,    3289,    3290,    3291,    3292,
    3293,    3294,    3295,    3296,    3297,    3298,    3299,    3300,    3301,    3302,
    3303,    3304,    3305,    3306,    3307,    3308,    3309,    3310,    3311,    3312,
    3313,    3314,    3315,    3316,    3317,    3318,    3319,    3320,    3321,    3322,
    3323,    3324,    3325,    3326,    3327,    3328,    3329,    3330,    3331,    3332,
    3333,    3334,    3335,    3336,    3337,    3338,    3339,    3340,    3341,    3342,
    3343,    3344,    3345,    3346,    3347,    3348,    3349,    3350,    3351,    3352,
    3353,    3354,    3355,    3356,    3357,    3358,    3359,    3360,    3361,    3362,
    3363,    3364,    3365,    3366,    3367,    3368,    3369,    3370,    3371,    3372,
    3373,    3374,    3375,    3376,    3377,    3378,    3379,    3380,    3381,    3382,
    3383,    3384,    3385,    3386,    3387,    3388,    3389,    3390,    3391,    3392,
    3393,    3394,    3395,    3396,    3397,    3398,    3399,    3400,    3401,    3402,
    3403,    3404,    3405,    3406,    3407,    3408,    3409,    3410,    3411,    3412,
    3413,    3414,    3415,    3416,    3417,    3418,    3419,    3420,    3421,    3422,
    3423,    3424,    3425,    3426,    3427,    3428,    3429,    3430,    3431,    3432,
    3433,    3434,    3435,    3436,    3437,    3438,    3439,    3440,    3441,    3442,
    3443,    3444,    3445,    3446,    3447,    3448,    3449,    3450,    3451,    3452,
    3453,    3454,    3455,    3456,    3457,    3458,    3459,    3460,    3461,    3462,
    3463,    3464,    3465,    3466,    3467,    3468,    3469,    3470,    3471,    3472,
    3473,    3474,    3475,    3476,    3477,    3478,    3479,    3480,    3481,    3482,
    3483,    3484,    3485,    3486,    3487,    3488,    3489,    3490,    3491,    3492,
    3493,    3494,    3495,    3496,    3497,    3498,    3499,    3500,    3501,    3502,
    3503,    3504,    3505,    3506,    3507,    3508,    3509,    3510,    3511,    3512,
    3513,    3514,    3515,    3516,    3517,    3518,    3519,    3520,    3521,    3522,
    3523,    3524,    3525,    3526,    3527,    3528,    3529,    3530,    3531,    3532,
    3533,    3534,    3535,    3536,    3537,    3538,    3539,    3540,    3541,    3542,
    3543,    3544,    3545,    3546,    3547,    3548,    3549,    3550,    3551,    3552,
    3553,    3554,    3555,    3556,    3557,    3558,    3559,    3560,    3561,    3562,
    3563,    3564,    3565,    3566,    3567,    3568,    3569,    3570,    3571,    3572,
    3573,    3574,    3575,    3576,    3577,    3578,    3579,    3580,    3581,    3582,
    3583,    3584,    3585,    3586,    3587,    3588,    3589,    3590,    3591,    3592,
    3593,    3594,    3595,    3596,    3597,    3598,    3599,    3600,    3601,    3602,
    3603,    3604,    3605,    3606,    3607,    3608,    3609,    3610,    3611,    3612,
    3613,    3614,    3615,    3616,    3617,    3618,    3619,    3620,    3621,    3622,
    3623,    3624,    3625,    3626,    3627,    3628,    3629,    3630,    3631,    3632,
    3633,    3634,    3635,    3636,    3637,    3638,    3639,    3640,    3641,    3642,
    3643,    3644,    3645,    3646,    3647,    3648,    3649,    3650
*SURFACE, NAME=mortar_to_concrete, TYPE=ELEMENT
mortar_to_concrete_S3, S3
*ELSET, ELSET=mortar_to_anchor_S5
    3203,    3204,    3205,    3206,    3207,    3208,    3209,    3210,    3211,    3212,
    3213,    3214,    3215,    3216,    3217,    3218,    3219,    3220,    3221,    3222,
    3223,    3224,    3225,    3226,    3227,    3228,    3229,    3230,    3231,    3232,
    3233,    3234,    3235,    3236,    3237,    3238,    3239,    3240,    3241,    3242,
    3243,    3244,    3245,    3246,    3247,    3248,    3249,    3250,    3251,    3252,
    3253,    3254,    3255,    3256,    3257,    3258,    3259,    3260,    3261,    3262,
    3263,    3264,    3265,    3266,    3267,    3268,    3269,    3270,    3271,    3272,
    3273,    3274,    3275,    3276,    3277,    3278,    3279,    3280,    3281,    3282,
    3283,    3284,    3285,    3286,    3287,    3288,    3289,    3290,    3291,    3292,
    3293,    3294,    3295,    3296,    3297,    3298,    3299,    3300,    3301,    3302,
    3303,    3304,    3305,    3306,    3307,    3308,    3309,    3310,    3311,    3312,
    3313,    3314,    3315,    3316,    3317,    3318,    3319,    3320,    3321,    3322,
    3323,    3324,    3325,    3326,    3327,    3328,    3329,    3330,    3331,    3332,
    3333,    3334,    3335,    3336,    3337,    3338,    3339,    3340,    3341,    3342,
    3343,    3344,    3345,    3346,    3347,    3348,    3349,    3350,    3351,    3352,
    3353,    3354,    3355,    3356,    3357,    3358,    3359,    3360,    3361,    3362,
    3363,    3364,    3365,    3366,    3367,    3368,    3369,    3370,    3371,    3372,
    3373,    3374,    3375,    3376,    3377,    3378,    3379,    3380,    3381,    3382,
    3383,    3384,    3385,    3386,    3387,    3388,    3389,    3390,    3391,    3392,
    3393,    3394,    3395,    3396,    3397,    3398,    3399,    3400,    3401,    3402,
    3403,    3404,    3405,    3406,    3407,    3408,    3409,    3410,    3411,    3412,
    3413,    3414,    3415,    3416,    3417,    3418,    3419,    3420,    3421,    3422,
    3423,    3424,    3425,    3426,    3427,    3428,    3429,    3430,    3431,    3432,
    3433,    3434,    3435,    3436,    3437,    3438,    3439,    3440,    3441,    3442,
    3443,    3444,    3445,    3446,    3447,    3448,    3449,    3450,    3451,    3452,
    3453,    3454,    3455,    3456,    3457,    3458,    3459,    3460,    3461,    3462,
    3463,    3464,    3465,    3466,    3467,    3468,    3469,    3470,    3471,    3472,
    3473,    3474,    3475,    3476,    3477,    3478,    3479,    3480,    3481,    3482,
    3483,    3484,    3485,    3486,    3487,    3488,    3489,    3490,    3491,    3492,
    3493,    3494,    3495,    3496,    3497,    3498,    3499,    3500,    3501,    3502,
    3503,    3504,    3505,    3506,    3507,    3508,    3509,    3510,    3511,    3512,
    3513,    3514,    3515,    3516,    3517,    3518,    3519,    3520,    3521,    3522,
    3523,    3524,    3525,    3526,    3527,    3528,    3529,    3530,    3531,    3532,
    3533,    3534,    3535,    3536,    3537,    3538,    3539,    3540,    3541,    3542,
    3543,    3544,    3545,    3546,    3547,    3548,    3549,    3550,    3551,    3552,
    3553,    3554,    3555,    3556,    3557,    3558,    3559,    3560,    3561,    3562,
    3563,    3564,    3565,    3566,    3567,    3568,    3569,    3570,    3571,    3572,
    3573,    3574,    3575,    3576,    3577,    3578,    3579,    3580,    3581,    3582,
    3583,    3584,    3585,    3586,    3587,    3588,    3589,    3590,    3591,    3592,
    3593,    3594,    3595,    3596,    3597,    3598,    3599,    3600,    3601,    3602,
    3603,    3604,    3605,    3606,    3607,    3608,    3609,    3610,    3611,    3612,
    3613,    3614,    3615,    3616,    3617,    3618,    3619,    3620,    3621,    3622,
    3623,    3624,    3625,    3626,    3627,    3628,    3629,    3630,    3631,    3632,
    3633,    3634,    3635,    3636,    3637,    3638,    3639,    3640,    3641,    3642,
    3643,    3644,    3645,    3646,    3647,    3648,    3649,    3650
*SURFACE, NAME=mortar_to_anchor, TYPE=ELEMENT
mortar_to_anchor_S5, S5
*ELSET, ELSET=anchor_to_mortar_S3
      16,      17,      18,      19,      35,      36,      37,      38,      54,      55,
      56,      57,      73,      74,      75,      76,      92,      93,      94,      95,
     111,     112,     113,     114,     130,     131,     132,     133,     149,     150,
     151,     152,     168,     169,     170,     171,     187,     188,     189,     190,
     206,     207,     208,     209,     225,     226,     227,     228,     244,     245,
     246,     247,     263,     264,     265,     266,     282,     283,     284,     285,
     301,     302,     303,     304,     320,     321,     322,     323,     339,     340,
     341,     342,     358,     359,     360,     361,     377,     378,     379,     380,
    1008,    1009,    1010,    1027,    1028,    1029,    1046,    1047,    1048,    1065,
    1066,    1067,    1084,    1085,    1086,    1103,    1104,    1105,    1122,    1123,
    1124,    1141,    1142,    1143,    1160,    1161,    1162,    1179,    1180,    1181,
    1198,    1199,    1200,    1217,    1218,    1219,    1236,    1237,    1238,    1255,
    1256,    1257,    1274,    1275,    1276,    1293,    1294,    1295,    1312,    1313,
    1314,    1331,    1332,    1333,    1350,    1351,    1352,    1369,    1370,    1371
*ELSET, ELSET=anchor_to_mortar_S4
       1,       2,       3,      20,      21,      22,      39,      40,      41,      58,
      59,      60,      77,      78,      79,      96,      97,      98,     115,     116,
     117,     134,     135,     136,     153,     154,     155,     172,     173,     174,
     191,     192,     193,     210,     211,     212,     229,     230,     231,     248,
     249,     250,     267,     268,     269,     286,     287,     288,     305,     306,
     307,     324,     325,     326,     343,     344,     345,     362,     363,     364,
    1011,    1012,    1013,    1014,    1030,    1031,    1032,    1033,    1049,    1050,
    1051,    1052,    1068,    1069,    1070,    1071,    1087,    1088,    1089,    1090,
    1106,    1107,    1108,    1109,    1125,    1126,    1127,    1128,    1144,    1145,
    1146,    1147,    1163,    1164,    1165,    1166,    1182,    1183,    1184,    1185,
    1201,    1202,    1203,    1204,    1220,    1221,    1222,    1223,    1239,    1240,
    1241,    1242,    1258,    1259,    1260,    1261,    1277,    1278,    1279,    1280,
    1296,    1297,    1298,    1299,    1315,    1316,    1317,    1318,    1334,    1335,
    1336,    1337,    1353,    1354,    1355,    1356,    1372,    1373,    1374,    1375
*SURFACE, NAME=anchor_to_mortar, TYPE=ELEMENT
anchor_to_mortar_S3, S3
anchor_to_mortar_S4, S4
*ELSET, ELSET=anchor_to_plate_S3
     381,     382,     383,     384,     400,     401,     402,     403,     419,     420,
     421,     422,     438,     439,     440,     441,     457,     458,     459,     460,
     476,     477,     478,     479,     495,     496,     497,     498,     514,     515,
     516,     517,     533,     534,     535,     536,     552,     553,     554,     555,
     571,     572,     573,     574,     590,     591,     592,     593,     609,     610,
     611,     612,     628,     629,     630,     631,     647,     648,     649,     650,
     666,     667,     668,     669,    1404,    1405,    1406,    1423,    1424,    1425,
    1442,    1443,    1444,    1461,    1462,    1463,    1480,    1481,    1482,    1499,
    1500,    1501,    1518,    1519,    1520,    1537,    1538,    1539,    1556,    1557,
    1558,    1575,    1576,    1577,    1594,    1595,    1596,    1613,    1614,    1615,
    1632,    1633,    1634,    1651,    1652,    1653,    1670,    1671,    1672,    1689,
    1690,    1691
*ELSET, ELSET=anchor_to_plate_S4
     397,     398,     399,     416,     417,     418,     435,     436,     437,     454,
     455,     456,     473,     474,     475,     492,     493,     494,     511,     512,
     513,     530,     531,     532,     549,     550,     551,     568,     569,     570,
     587,     588,     589,     606,     607,     608,     625,     626,     627,     644,
     645,     646,     663,     664,     665,     682,     683,     684,    1400,    1401,
    1402,    1403,    1419,    1420,    1421,    1422,    1438,    1439,    1440,    1441,
    1457,    1458,    1459,    1460,    1476,    1477,    1478,    1479,    1495,    1496,
    1497,    1498,    1514,    1515,    1516,    1517,    1533,    1534,    1535,    1536,
    1552,    1553,    1554,    1555,    1571,    1572,    1573,    1574,    1590,    1591,
    1592,    1593,    1609,    1610,    1611,    1612,    1628,    1629,    1630,    1631,
    1647,    1648,    1649,    1650,    1666,    1667,    1668,    1669,    1685,    1686,
    1687,    1688
*SURFACE, NAME=anchor_to_plate, TYPE=ELEMENT
anchor_to_plate_S3, S3
anchor_to_plate_S4, S4
*ELSET, ELSET=plate_to_anchor_S1
    2513,    2514,    2515,    2516,    2517,    2518,    2519,    2520,    2521,    2522,
    2523,    2524,    2525,    2526,    2527,    2528,    2529,    2530,    2531,    2532,
    2533,    2534,    2535,    2536,    2537,    2538,    2539,    2540,    2541,    2542,
    2543,    2544
*ELSET, ELSET=plate_to_anchor_S4
    2467,    2470,    2473,    2476,    2479,    2482,    2485,    2488,    2491,    2494,
    2497,    2500,    2503,    2506,    2509,    2512,    3061,    3064,    3067,    3070,
    3073,    3076,    3079,    3082,    3085,    3088,    3091,    3094,    3097,    3100,
    3103,    3106,    3109,    3112,    3115,    3118,    3121,    3124,    3127,    3130,
    3133,    3136,    3139,    3142,    3145,    3148,    3151,    3154,    3157,    3160,
    3163,    3166,    3169,    3172,    3175,    3178,    3181,    3184,    3187,    3190,
    3193,    3196,    3199,    3202
*SURFACE, NAME=plate_to_anchor, TYPE=ELEMENT
plate_to_anchor_S1, S1
plate_to_anchor_S4, S4
*ELSET, ELSET=washer_bottom_S2
    3651,    3652,    3653,    3654,    3655,    3656,    3657,    3658,    3659,    3660,
    3661,    3662,    3663,    3664,    3665,    3666,    3667,    3668,    3669,    3670,
    3671,    3672,    3673,    3674,    3675,    3676,    3677,    3705,    3706,    3707,
    3708,    3709,    3710,    3711,    3712,    3713,    3714,    3715,    3716,    3717,
    3718,    3719,    3720,    3721,    3722,    3723,    3724,    3725,    3726,    3727,
    3728,    3729,    3730,    3731
*SURFACE, NAME=washer_bottom, TYPE=ELEMENT
washer_bottom_S2, S2
*ELSET, ELSET=washer_to_nut_S1
    3678,    3679,    3680,    3681,    3682,    3683,    3684,    3685,    3686,    3687,
    3688,    3689,    3690,    3691,    3692,    3693,    3694,    3695,    3696,    3697,
    3698,    3699,    3700,    3701,    3702,    3703,    3704,    3732,    3733,    3734,
    3735,    3736,    3737,    3738,    3739,    3740,    3741,    3742,    3743,    3744,
    3745,    3746,    3747,    3748,    3749,    3750,    3751,    3752,    3753,    3754,
    3755,    3756,    3757,    3758
*SURFACE, NAME=washer_to_nut, TYPE=ELEMENT
washer_to_nut_S1, S1
*ELSET, ELSET=nut_to_washer_S2
    3759,    3760,    3761,    3762,    3763,    3764,    3765,    3766,    3767,    3768,
    3769,    3770,    3771,    3772,    3773,    3774,    3775,    3878,    3879,    3880,
    3881,    3882,    3883,    3884,    3885,    3886,    3887,    3888,    3889,    3890,
    3891,    3892,    3893,    3894,    3895
*SURFACE, NAME=nut_to_washer, TYPE=ELEMENT
nut_to_washer_S2, S2
*ELSET, ELSET=nut_to_anchor_S3
    3769,    3770,    3771,    3772,    3773,    3774,    3775,    3786,    3787,    3788,
    3789,    3790,    3791,    3792,    3803,    3804,    3805,    3806,    3807,    3808,
    3809,    3820,    3821,    3822,    3823,    3824,    3825,    3826,    3837,    3838,
    3839,    3840,    3841,    3842,    3843,    3854,    3855,    3856,    3857,    3858,
    3859,    3860,    3871,    3872,    3873,    3874,    3875,    3876,    3877,    3889,
    3890,    3891,    3892,    3893,    3894,    3895,    3907,    3908,    3909,    3910,
    3911,    3912,    3913,    3925,    3926,    3927,    3928,    3929,    3930,    3931,
    3943,    3944,    3945,    3946,    3947,    3948,    3949,    3961,    3962,    3963,
    3964,    3965,    3966,    3967,    3979,    3980,    3981,    3982,    3983,    3984,
    3985,    3997,    3998,    3999,    4000,    4001,    4002,    4003
*SURFACE, NAME=nut_to_anchor, TYPE=ELEMENT
nut_to_anchor_S3, S3
*ELSET, ELSET=anchor_to_nut_S3
     757,     758,     759,     760,     776,     777,     778,     779,     795,     796,
     797,     798,     814,     815,     816,     817,     833,     834,     835,     836,
     852,     853,     854,     855,     871,     872,     873,     874,     890,     891,
     892,     893,     909,     910,     911,     912,     928,     929,     930,     931,
     947,     948,     949,     950,     966,     967,     968,     969,     985,     986,
     987,     988,    1004,    1005,    1006,    1007,    1749,    1750,    1751,    1768,
    1769,    1770,    1787,    1788,    1789,    1806,    1807,    1808,    1825,    1826,
    1827,    1844,    1845,    1846,    1863,    1864,    1865,    1882,    1883,    1884,
    1901,    1902,    1903,    1920,    1921,    1922,    1939,    1940,    1941,    1958,
    1959,    1960,    1977,    1978,    1979,    1996,    1997,    1998
*ELSET, ELSET=anchor_to_nut_S4
     742,     743,     744,     761,     762,     763,     780,     781,     782,     799,
     800,     801,     818,     819,     820,     837,     838,     839,     856,     857,
     858,     875,     876,     877,     894,     895,     896,     913,     914,     915,
     932,     933,     934,     951,     952,     953,     970,     971,     972,     989,
     990,     991,    1752,    1753,    1754,    1755,    1771,    1772,    1773,    1774,
    1790,    1791,    1792,    1793,    1809,    1810,    1811,    1812,    1828,    1829,
    1830,    1831,    1847,    1848,    1849,    1850,    1866,    1867,    1868,    1869,
    1885,    1886,    1887,    1888,    1904,    1905,    1906,    1907,    1923,    1924,
    1925,    1926,    1942,    1943,    1944,    1945,    1961,    1962,    1963,    1964,
    1980,    1981,    1982,    1983,    1999,    2000,    2001,    2002
*SURFACE, NAME=anchor_to_nut, TYPE=ELEMENT
anchor_to_nut_S3, S3
anchor_to_nut_S4, S4
